Good luck                               
   1.00000000000000     
     7.1753333292012300    0.0000000000000000    0.0000000000000000
     0.0000000000000000    5.6814778681246496    0.0000000000000000
     0.0000000000000000    0.0000000000000000    6.9237073439811017
   P    S    Li
     2     8     6
Direct
  0.0000000000000000  0.7529626945794323  0.2752811484259937
  0.5000000000016200  0.2470373054129580  0.7752811484201884
  0.2305922217519875  0.5437300911728783  0.2351467648657481
  0.2694077782496325  0.4562699088371117  0.7351467648599431
  0.7305922217536078  0.4562699088371117  0.7351467648599431
  0.7694077782512594  0.5437300911728783  0.2351467648657481
  0.0000000000000000  0.9604976621222586  0.0326359006609769
  0.5000000000016200  0.0395023378877313  0.5326359006551717
  0.0000000000000000  0.9209289845069926  0.5296563480859001
  0.5000000000016200  0.0790710155029974  0.0296563480772668
  0.0000000000000000  0.3751111511068504  0.9864480442433513
  0.5000000000016200  0.6248888488855467  0.4864480442491566
  0.2829243369308851  0.7815334841178494  0.9505693621303141
  0.2170756630707351  0.2184665158745477  0.4505693621361194
  0.7829243369325123  0.2184665158745477  0.4505693621361194
  0.7170756630723549  0.7815334841178494  0.9505693621303141
 
  0.00000000E+00  0.00000000E+00  0.00000000E+00
  0.00000000E+00  0.00000000E+00  0.00000000E+00
  0.00000000E+00  0.00000000E+00  0.00000000E+00
  0.00000000E+00  0.00000000E+00  0.00000000E+00
  0.00000000E+00  0.00000000E+00  0.00000000E+00
  0.00000000E+00  0.00000000E+00  0.00000000E+00
  0.00000000E+00  0.00000000E+00  0.00000000E+00
  0.00000000E+00  0.00000000E+00  0.00000000E+00
  0.00000000E+00  0.00000000E+00  0.00000000E+00
  0.00000000E+00  0.00000000E+00  0.00000000E+00
  0.00000000E+00  0.00000000E+00  0.00000000E+00
  0.00000000E+00  0.00000000E+00  0.00000000E+00
  0.00000000E+00  0.00000000E+00  0.00000000E+00
  0.00000000E+00  0.00000000E+00  0.00000000E+00
  0.00000000E+00  0.00000000E+00  0.00000000E+00
  0.00000000E+00  0.00000000E+00  0.00000000E+00
