Good luck                               
   1.00000000000000     
     7.5802241688644809    0.0000000000000000    0.0000000000000000
     0.0000000000000000    6.3334726120258287    0.0000000000000000
     0.0000000000000000    0.0000000000000000    6.0107907704234806
   P    S    Li
     2     8     6
Direct
  0.0000000000000000  0.3194152851247480  0.3004392895001331
  0.4999999999957438  0.6805847148711734  0.8004392894981791
  0.2201941407294896  0.1601915559520322  0.2034453785211099
  0.2798058592662613  0.8398084440438893  0.7034453785191559
  0.7201941407252335  0.8398084440438893  0.7034453785191559
  0.7798058592752000  0.1601915559520322  0.2034453785211099
  0.0000000000000000  0.6107825978997425  0.1583425467549517
  0.4999999999957438  0.3892174021119672  0.6583425467529977
  0.0000000000000000  0.3400903176892456  0.6389015373811517
  0.4999999999957438  0.6599096823066759  0.1389015373831057
  0.0000000000000000  0.6573293787826699  0.7874197557148648
  0.4999999999957438  0.3426706212132515  0.2874197557168117
  0.2559683475680998  0.1867261601880870  0.8012037539714072
  0.2440316524408388  0.8132738398078345  0.3012037539733612
  0.7559683475638437  0.8132738398078345  0.3012037539733612
  0.7440316524365898  0.1867261601880870  0.8012037539714072
 
  0.00000000E+00  0.00000000E+00  0.00000000E+00
  0.00000000E+00  0.00000000E+00  0.00000000E+00
  0.00000000E+00  0.00000000E+00  0.00000000E+00
  0.00000000E+00  0.00000000E+00  0.00000000E+00
  0.00000000E+00  0.00000000E+00  0.00000000E+00
  0.00000000E+00  0.00000000E+00  0.00000000E+00
  0.00000000E+00  0.00000000E+00  0.00000000E+00
  0.00000000E+00  0.00000000E+00  0.00000000E+00
  0.00000000E+00  0.00000000E+00  0.00000000E+00
  0.00000000E+00  0.00000000E+00  0.00000000E+00
  0.00000000E+00  0.00000000E+00  0.00000000E+00
  0.00000000E+00  0.00000000E+00  0.00000000E+00
  0.00000000E+00  0.00000000E+00  0.00000000E+00
  0.00000000E+00  0.00000000E+00  0.00000000E+00
  0.00000000E+00  0.00000000E+00  0.00000000E+00
  0.00000000E+00  0.00000000E+00  0.00000000E+00
