Good luck
1.0
7.580224168864481  0.0  0.0
0.0  6.333472612025829  0.0
0.0  0.0  6.010790770423481
P  S  Li  
2  8  6  
Car
0.0  2.0230079602  1.8058777084
3.7901120844  4.3104646518  4.8112730936
1.6691209474  1.0145688323  1.2228676035
2.120991137  5.3189037797  4.2282629887
5.4592330318  5.3189037797  4.2282629887
5.9111032215  1.0145688323  1.2228676035
0.0  3.8683748557  0.9517639186
3.7901120844  2.4650977564  3.9571593038
0.0  2.1539527127  3.8403034641
3.7901120844  4.1795198993  0.8349080789
0.0  4.1631776176  4.7330154001
3.7901120844  2.1702949944  1.7276200149
1.9402974547  1.1826250215  4.8158681296
1.8498146298  5.1508475905  1.8104727444
5.7304095391  5.1508475905  1.8104727444
5.6399267142  1.1826250215  4.8158681296
