Good luck
1.0
7.580224168864481  0.0  0.0
0.0  6.333472612025829  0.0
0.0  0.0  6.010790770423481
P  S  Li  
2  8  6  
Car
0.0  2.0228189021  1.8057488619
3.7901120844  4.3106537099  4.8111442471
1.6691209474  1.0929475852  1.1041866115
2.120991137  5.2405250268  4.1095819967
5.4592330318  5.2405250268  4.1095819967
5.9111032215  1.0929475852  1.1041866115
0.0  3.9585209993  1.1828951586
3.7901120844  2.3749516127  4.1882905438
0.0  1.9048534812  3.8409684675
3.7901120844  4.4286191308  0.8355730823
0.0  4.1632089554  4.7330779961
3.7901120844  2.1702636566  1.7276826109
1.9401474484  1.1827558665  4.8158439665
1.849964636  5.1507167456  1.8104485813
5.7302595329  5.1507167456  1.8104485813
5.6400767204  1.1827558665  4.8158439665
