Good luck                               
   1.00000000000000     
     6.9336127435000003    0.0000000000000000    0.0000000000000000
     0.0000000000000000    6.9336127435000003    0.0000000000000000
     0.0000000000000000    0.0000000000000000    6.9336127435000003
   P    S    Li
     2     8     6
Direct
  0.0000000000000000  0.4729277516074220  0.8538416589893885
  0.5000000000072120  0.5270722483925780  0.3538416589821765
  0.2355184784051971  0.4584131206750328  0.6879386682897177
  0.2644815216020149  0.5415868793249672  0.1879386682825057
  0.7355184784124091  0.5415868793249672  0.1879386682825057
  0.7644815215948029  0.4584131206750328  0.6879386682897177
  0.0000000000000000  0.7220646420285632  0.9992178617842384
  0.5000000000072120  0.2779353579714368  0.4992178617770264
  0.0000000000000000  0.2528201230510518  0.0402714376083040
  0.5000000000072120  0.7471798769489482  0.5402714376155160
  0.0000000000000000  0.0906344473000900  0.3921642570749384
  0.5000000000072120  0.9093655526999100  0.8921642570821504
  0.7354263899841058  0.7262364698577315  0.8643387583937709
  0.7645736100086822  0.2737635301422685  0.3643387583865589
  0.2354263899913178  0.2737635301422685  0.3643387583865589
  0.2645736100158942  0.7262364698577315  0.8643387583937709
 
  0.00000000E+00  0.00000000E+00  0.00000000E+00
  0.00000000E+00  0.00000000E+00  0.00000000E+00
  0.00000000E+00  0.00000000E+00  0.00000000E+00
  0.00000000E+00  0.00000000E+00  0.00000000E+00
  0.00000000E+00  0.00000000E+00  0.00000000E+00
  0.00000000E+00  0.00000000E+00  0.00000000E+00
  0.00000000E+00  0.00000000E+00  0.00000000E+00
  0.00000000E+00  0.00000000E+00  0.00000000E+00
  0.00000000E+00  0.00000000E+00  0.00000000E+00
  0.00000000E+00  0.00000000E+00  0.00000000E+00
  0.00000000E+00  0.00000000E+00  0.00000000E+00
  0.00000000E+00  0.00000000E+00  0.00000000E+00
  0.00000000E+00  0.00000000E+00  0.00000000E+00
  0.00000000E+00  0.00000000E+00  0.00000000E+00
  0.00000000E+00  0.00000000E+00  0.00000000E+00
  0.00000000E+00  0.00000000E+00  0.00000000E+00
