Good luck                               
   1.00000000000000     
     7.4853442109570505    0.0000000000000000    0.0000000000000000
     0.0000000000000000    6.4073574912963362    0.0000000000000000
     0.0000000000000000    0.0000000000000000    6.0118532867607879
   P    S    Li
     2     8     6
Direct
  0.0000000000000000  0.3152298931101711  0.2820007438194594
  0.5000000000028706  0.6847701068903973  0.7820007438227208
  0.2230096342872869  0.1919240160971896  0.1389285797175575
  0.2769903657155837  0.8080759839033860  0.6389285797208188
  0.7230096342901575  0.8080759839033860  0.6389285797208188
  0.7769903657184472  0.1919240160971896  0.1389285797175575
  0.0000000000000000  0.6294585399797938  0.2384735557930568
  0.5000000000028706  0.3705414600207746  0.7384735557963182
  0.0000000000000000  0.2389817002063666  0.6108640052789340
  0.5000000000028706  0.7610182997942019  0.1108640052756726
  0.0000000000000000  0.6517408822080739  0.7675416753701612
  0.5000000000028706  0.3482591177924945  0.2675416753668998
  0.2589098138951442  0.1872838029296844  0.7839962378455709
  0.2410901861077193  0.8127161970708840  0.2839962378423095
  0.7589098138980148  0.8127161970708840  0.2839962378423095
  0.7410901861105899  0.1872838029296844  0.7839962378455709
 
  0.00000000E+00  0.00000000E+00  0.00000000E+00
  0.00000000E+00  0.00000000E+00  0.00000000E+00
  0.00000000E+00  0.00000000E+00  0.00000000E+00
  0.00000000E+00  0.00000000E+00  0.00000000E+00
  0.00000000E+00  0.00000000E+00  0.00000000E+00
  0.00000000E+00  0.00000000E+00  0.00000000E+00
  0.00000000E+00  0.00000000E+00  0.00000000E+00
  0.00000000E+00  0.00000000E+00  0.00000000E+00
  0.00000000E+00  0.00000000E+00  0.00000000E+00
  0.00000000E+00  0.00000000E+00  0.00000000E+00
  0.00000000E+00  0.00000000E+00  0.00000000E+00
  0.00000000E+00  0.00000000E+00  0.00000000E+00
  0.00000000E+00  0.00000000E+00  0.00000000E+00
  0.00000000E+00  0.00000000E+00  0.00000000E+00
  0.00000000E+00  0.00000000E+00  0.00000000E+00
  0.00000000E+00  0.00000000E+00  0.00000000E+00
