Good luck
1.0
7.659436086176289  0.0  0.0
0.0  5.8422032493497476  0.0
0.0  0.0  6.1543095237725955
P  S  Li  
2  8  6  
Car
0.0  1.1980716123  0.1640770324
3.8297180431  4.644131637  3.2412317943
1.6755313715  2.017250924  5.4924504886
2.1541866716  3.8249523254  2.4152957267
5.5052494145  3.8249523254  2.4152957267
5.9839047147  2.017250924  5.4924504886
0.0  1.1764529926  2.1593761143
3.8297180431  4.6657502567  5.2365308762
0.0  5.0078777001  5.7609535707
3.8297180431  0.8343255493  2.6837988088
0.0  3.1307386431  3.5509231339
3.8297180431  2.7114646062  0.473768372
2.0570705422  0.2355140991  1.3431449665
1.7726475008  5.6066891503  4.4202997283
5.8867885853  5.6066891503  4.4202997283
5.6023655439  0.2355140991  1.3431449665
