Good luck
1.0
7.516133028999928  -5.58288319338e-05  4.0423947543e-06
5.2993368002e-05  6.3840042598179885  -2.232871259e-07
3.2330630947e-06  -2.109850439e-07  6.007916184227827
P  S  Li  
2  8  6  
Car
7.5160641414  3.75406729  2.4369810105
3.7581926348  2.62985295  5.4409371208
1.6329250356  4.8414116894  2.825741859
2.1251991301  1.5425643521  5.8297003313
5.3909657831  1.5425400944  5.8297020877
5.8832914116  4.8413801182  2.825744145
7.5160641414  2.1169821379  3.5858743622
3.7581906383  4.2669382323  0.5819141738
7.5160641415  3.2165753001  0.5105578769
3.7581905614  3.1673450751  3.5145139496
7.5160779791  5.2462126567  0.9866216288
3.7581772362  1.1377076851  3.9905778435
2.0630564007  3.6026878559  5.8126421898
1.6950677466  2.7812881868  2.8086839285
5.8211144803  2.781257539  2.8086861476
5.453142696  3.6026626748  5.8126440131
