Good luck
1.0
7.659436086176289  0.0  0.0
0.0  5.8422032493497476  0.0
0.0  0.0  6.1543095237725955
P  S  Li  
2  8  6  
Car
0.0  1.1980716123  0.1640770324
0.0  4.644131637  3.2412317943
1.6755313715  2.017250924  5.4924504886
1.6755313715  3.8249523254  2.4152957267
0.0  1.1764529926  2.1593761143
0.0  4.6657502567  5.2365308762
0.0  5.0078777001  5.7609535707
0.0  0.8343255493  2.6837988088
5.9839047147  2.017250924  5.4924504886
5.9839047147  3.8249523254  2.4152957267
0.0  3.1307386431  3.5509231339
0.0  2.7114646062  0.473768372
2.0570705422  0.2355140991  1.3431449665
2.0570705422  5.6066891503  4.4202997283
