Good luck
1.0
6.9336127435  0.0  0.0
0.0  6.9336127435  0.0
0.0  0.0  6.9336127435
P  S  Li  
2  8  6  
Car
0.0  1.037534418  5.7534504487
3.4668063718  5.8960783255  2.2866440769
1.6329939232  1.2380461557  4.6162918759
1.8338124486  5.6955665878  1.1494855041
5.099800295  5.6955665878  1.1494855041
5.3006188203  1.2380461557  4.6162918759
0.0  2.4452077565  0.2405626969
3.4668063718  4.488404987  3.7073690687
0.0  6.1624503476  6.6070426026
3.4668063718  0.7711623959  3.1402362308
0.0  3.9906959845  5.9454150952
3.4668063718  2.942916759  2.4786087234
1.298742504  5.4526297731  4.4465772668
2.1680638677  1.4809829704  0.9797708951
4.7655488758  1.4809829704  0.9797708951
5.6348702395  5.4526297731  4.4465772668
