Good luck
1.0
7.481220334979446  0.0  0.0
0.0  6.408385997433308  0.0
0.0  0.0  6.0118368588287465
P  S  Li  
2  8  6  
Car
0.0  2.0194882192  1.6949799959
0.0  5.2236812179  4.3168568629
1.6679636369  1.0565512325  1.0350161861
5.813256698  4.2607442312  4.9768206728
0.0  3.9241049245  0.9865609257
0.0  0.7199119258  5.0252759332
0.0  1.9887233191  3.731573402
0.0  5.1929163178  2.2802634568
5.813256698  1.0565512325  1.0350161861
1.667963637  4.2607442312  4.9768206728
0.0  4.173325008  4.6129886569
0.0  0.9691320093  1.398848202
1.9376607273  1.1991403492  4.7131800067
5.5435596077  4.4033333479  1.2986568522
