Good luck
1.0
7.516133028999928  -5.58288319338e-05  4.0423947543e-06
5.2993368002e-05  6.3840042598179885  -2.232871259e-07
3.2330630947e-06  -2.109850439e-07  6.007916184227827
P  S  Li  
2  8  6  
Car
7.5161733613  5.4593052873  3.7844552101
3.7580816321  0.924615069  0.7804952554
1.6692096687  0.0301674254  3.1159976517
2.0889115763  6.3538088067  0.1120395641
5.427327059  6.3537840094  0.1120413596
5.846927215  0.0301363938  3.1159998986
7.5161785482  5.5125349205  5.8185491349
3.7580786344  0.8713852929  2.814589184
7.516155119  3.5505571774  3.0939692833
3.7580991313  2.8333632274  0.0900091951
7.5161374386  3.1857466449  0.7023097527
3.7581174706  3.1981737169  3.7062658233
2.3671360021  1.8178089401  4.3101886974
1.3909865282  4.5661672081  1.3062299842
6.125223714  4.5661320428  1.3062325304
5.1490318452  1.8177882765  4.3101901936
