Good luck                               
   1.00000000000000     
     5.4941598713434860    0.0000000000000000    1.8801108431639508
     0.0000000000000000    5.7418138333594015    0.0000000000000000
     2.3407022243281594    0.0000000000000000    9.5469894240780437
   P    S    Li
     2     8     6
Direct
  0.1455205440768469  0.6587451408490771  0.6751615263010965
  0.1455205440625437  0.3412548591483796  0.1751615263106528
  0.0893081288139875  0.7762868222744230  0.8857739775434210
  0.0893081288261165  0.2237131777230332  0.3857739775357827
  0.7941573768765010  0.6991862474260430  0.6783579177040985
  0.7941573768823417  0.3008137525714200  0.1783579177092219
  0.2139213509569034  0.3072668083768947  0.6636970197977717
  0.2139213509690394  0.6927331916365636  0.1636970197901265
  0.4750803450698926  0.8116841917772912  0.4784564589466563
  0.4750803450577565  0.1883158082361669  0.9784564589542940
  0.4880503096628139  0.0472770704331298  0.7400598379045458
  0.4880503096548061  0.9527229295643341  0.2400598379013343
  0.9268103296254595  0.8357820922556830  0.4243703228879250
  0.9268103296196188  0.1642179077417731  0.9243703228828017
  0.6426550913268436  0.5944129020526006 -0.0505007354274221
  0.6426550913210101  0.4055870979608573  0.4494992645674477
 
  0.00000000E+00  0.00000000E+00  0.00000000E+00
  0.00000000E+00  0.00000000E+00  0.00000000E+00
  0.00000000E+00  0.00000000E+00  0.00000000E+00
  0.00000000E+00  0.00000000E+00  0.00000000E+00
  0.00000000E+00  0.00000000E+00  0.00000000E+00
  0.00000000E+00  0.00000000E+00  0.00000000E+00
  0.00000000E+00  0.00000000E+00  0.00000000E+00
  0.00000000E+00  0.00000000E+00  0.00000000E+00
  0.00000000E+00  0.00000000E+00  0.00000000E+00
  0.00000000E+00  0.00000000E+00  0.00000000E+00
  0.00000000E+00  0.00000000E+00  0.00000000E+00
  0.00000000E+00  0.00000000E+00  0.00000000E+00
  0.00000000E+00  0.00000000E+00  0.00000000E+00
  0.00000000E+00  0.00000000E+00  0.00000000E+00
  0.00000000E+00  0.00000000E+00  0.00000000E+00
  0.00000000E+00  0.00000000E+00  0.00000000E+00
