Good luck
1.0
5.568341795519976  0.0  1.9305485336155916
0.0  6.251967177015879  0.0
2.746048013093153  0.0  8.785520658512588
P  S  Li  
2  8  6  
Car
2.5176324999  4.1263886611  6.1359875772
1.1446084933  2.1255785159  1.743227248
2.8624402588  4.7686905472  8.0239287028
1.4894162523  1.4832766298  3.6311683735
6.0848050378  4.1635281562  7.6736248097
4.7117810313  2.0884390208  3.2808644805
3.1364845915  2.1840078442  6.0121368888
1.763460585  4.0679593329  1.6193765595
3.7713503868  5.2449142416  4.9730232717
5.1443743933  1.0070529355  9.365783601
5.100720882  1.0947600253  7.0406090095
3.7276968754  5.1572071517  2.6478486802
6.0424414893  5.462874922  5.4474161877
7.4154654958  0.789092255  9.8401765169
3.8519378879  2.7886530245  1.4762878295
5.2249618944  3.4633141526  5.8690481587
