Good luck
1.0
5.885778055880357  0.0  1.47103059364325
0.0  6.014966048387626  0.0
2.438494980022019  0.0  8.19888712976592
P  S  Li  
2  8  6  
Car
6.5768245129  0.6985066361  5.1995996264
7.7960720029  5.3164594123  9.2990431913
6.3816836658  2.4350179414  6.3046155061
5.1624361758  3.579948107  2.2051719412
4.6175613128  0.0566954685  5.191199513
3.3983138228  5.9582705798  1.0917559481
1.762219708  5.3101676261  4.7079979351
0.542972218  0.7047984223  0.6085543703
1.8564177097  1.3074710274  2.1529657046
3.0756651997  4.707495021  6.2524092695
0.6131403383  2.9806730326  1.8728614763
1.8323878283  3.0342930157  5.9723050412
3.915674954  1.3298843547  2.1173427602
5.134922444  4.6850816937  6.2167863251
2.9812158461  3.8774159475  1.8834781422
4.2004633361  2.1375501009  5.9829217071
