Good luck                               
   1.00000000000000     
     7.5802241688644809    0.0000000000000000    0.0000000000000000
     0.0000000000000000    6.3334726120258287    0.0000000000000000
     0.0000000000000000    0.0000000000000000    6.0107907704234806
   P    S    Li
     2     8     6
Direct
  0.0000000000000000  0.3193858310057314  0.3004191256249643
  0.4999999999964828  0.6806141690069943  0.8004191256361625
  0.2201941407319539  0.1687908743112779  0.1891720597598417
  0.2798058592645289  0.8312091256853753  0.6891720597710468
  0.7201941407284368  0.8312091256853753  0.6891720597710468
  0.7798058592740501  0.1687908743112779  0.1891720597598417
  0.0000000000000000  0.6213979744118994  0.1856207017628689
  0.4999999999964828  0.3786020255847536  0.6856207017574970
  0.0000000000000000  0.3119861906253145  0.6394921055933835
  0.4999999999964828  0.6880138093713392  0.1394921055987555
  0.0000000000000000  0.6573198681184451  0.7873879656301479
  0.4999999999964828  0.3426801318782081  0.2873879656355268
  0.2558561168304558  0.1864904115969262  0.8009732502724617
  0.2441438831790655  0.8135095884157996  0.3009732502778404
  0.7558561168269384  0.8135095884157996  0.3009732502778404
  0.7441438831755485  0.1864904115969262  0.8009732502724617
 
  0.00000000E+00  0.00000000E+00  0.00000000E+00
  0.00000000E+00  0.00000000E+00  0.00000000E+00
  0.00000000E+00  0.00000000E+00  0.00000000E+00
  0.00000000E+00  0.00000000E+00  0.00000000E+00
  0.00000000E+00  0.00000000E+00  0.00000000E+00
  0.00000000E+00  0.00000000E+00  0.00000000E+00
  0.00000000E+00  0.00000000E+00  0.00000000E+00
  0.00000000E+00  0.00000000E+00  0.00000000E+00
  0.00000000E+00  0.00000000E+00  0.00000000E+00
  0.00000000E+00  0.00000000E+00  0.00000000E+00
  0.00000000E+00  0.00000000E+00  0.00000000E+00
  0.00000000E+00  0.00000000E+00  0.00000000E+00
  0.00000000E+00  0.00000000E+00  0.00000000E+00
  0.00000000E+00  0.00000000E+00  0.00000000E+00
  0.00000000E+00  0.00000000E+00  0.00000000E+00
  0.00000000E+00  0.00000000E+00  0.00000000E+00
