Good luck
1.0
7.667166225053971  0.0  0.0
0.0  6.222203802920829  0.0
0.0  0.0  6.032076934664871
P  S  Li  
2  8  6  
Car
0.0  2.0595960586  1.8001922632
3.8335831125  4.1626077444  4.8162307306
1.6728870603  1.0546389713  1.2221193694
2.1606960522  5.1675648316  4.2381578368
5.5064701728  5.1675648316  4.2381578368
5.9942791648  1.0546389713  1.2221193694
0.0  3.9284124911  1.0546016411
3.8335831125  2.2937913118  4.0706401084
0.0  2.0127254142  3.8472207136
3.8335831125  4.2094783887  0.8311822463
0.0  4.0975518568  4.6590712496
3.8335831125  2.1246519461  1.6430327823
1.934869099  1.1183041682  4.8394103826
1.8987140136  5.1038996348  1.8233719153
5.7684522115  5.1038996348  1.8233719153
5.7322971261  1.1183041682  4.8394103826
