Good luck                               
   1.00000000000000     
     7.6671662250539709    0.0000000000000000    0.0000000000000000
     0.0000000000000000    6.2222038029208289    0.0000000000000000
     0.0000000000000000    0.0000000000000000    6.0320769346648708
   P    S    Li
     2     8     6
Direct
  0.0000000000000000  0.3308933804343610  0.2983161035561253
  0.4999999999964828  0.6691066195622923  0.7983161035507464
  0.2181884429260847  0.1762560902111829  0.1910948252128080
  0.2818115570703981  0.8237439097854633  0.6910948252240132
  0.7181884429225676  0.8237439097854633  0.6910948252240132
  0.7818115570799193  0.1762560902111829  0.1910948252128080
  0.0000000000000000  0.6388668770916794  0.1966243707012509
  0.4999999999964828  0.3611331229049739  0.6966243706958721
  0.0000000000000000  0.3004299044371521  0.6363045747713514
  0.4999999999964828  0.6995700955595012  0.1363045747767302
  0.0000000000000000  0.6588038876154698  0.7717748529609310
  0.4999999999964828  0.3411961123972560  0.2717748529663098
  0.2524450606503450  0.1801144502971610  0.8021264708668383
  0.2475549393461378  0.8198855496994923  0.3021264708722171
  0.7524450606468207  0.8198855496994923  0.3021264708722171
  0.7475549393426206  0.1801144502971610  0.8021264708668383
 
  0.00000000E+00  0.00000000E+00  0.00000000E+00
  0.00000000E+00  0.00000000E+00  0.00000000E+00
  0.00000000E+00  0.00000000E+00  0.00000000E+00
  0.00000000E+00  0.00000000E+00  0.00000000E+00
  0.00000000E+00  0.00000000E+00  0.00000000E+00
  0.00000000E+00  0.00000000E+00  0.00000000E+00
  0.00000000E+00  0.00000000E+00  0.00000000E+00
  0.00000000E+00  0.00000000E+00  0.00000000E+00
  0.00000000E+00  0.00000000E+00  0.00000000E+00
  0.00000000E+00  0.00000000E+00  0.00000000E+00
  0.00000000E+00  0.00000000E+00  0.00000000E+00
  0.00000000E+00  0.00000000E+00  0.00000000E+00
  0.00000000E+00  0.00000000E+00  0.00000000E+00
  0.00000000E+00  0.00000000E+00  0.00000000E+00
  0.00000000E+00  0.00000000E+00  0.00000000E+00
  0.00000000E+00  0.00000000E+00  0.00000000E+00
