Good luck
1.0
7.667166225053971  0.0  0.0
0.0  6.222203802920829  0.0
0.0  0.0  6.032076934664871
P  S  Li  
2  8  6  
Car
0.0  2.0588851951  1.7983278234
3.8335831125  4.1633186078  4.8143662907
1.6728870603  1.0439924049  1.2378818924
2.1606960522  5.178211398  4.2539203597
5.5064701728  5.178211398  4.2539203597
5.9942791648  1.0439924049  1.2378818924
0.0  3.914404647  1.0202354146
3.8335831125  2.307799156  4.0362738819
0.0  2.0477472619  3.8458625073
3.8335831125  4.174456541  0.82982404
0.0  4.0998391719  4.6551251193
3.8335831125  2.122364631  1.6390866519
1.9355948274  1.1205385572  4.8384969991
1.8979882851  5.1016652457  1.8224585318
5.7691779399  5.1016652457  1.8224585318
5.7315713977  1.1205385572  4.8384969991
