Good luck
1.0
7.667166225053971  0.0  0.0
0.0  6.222203802920829  0.0
0.0  0.0  6.032076934664871
P  S  Li  
2  8  6  
Car
0.0  2.0588860501  1.7994656875
3.8335831125  4.1633177528  4.8155041548
1.6728870603  1.0967013148  1.1526986875
2.1606960522  5.1255024881  4.1687371549
5.5064701728  5.1255024881  4.1687371549
5.9942791648  1.0967013148  1.1526986875
0.0  3.9751599122  1.1860533313
3.8335831125  2.2470438907  4.2020917986
0.0  1.8693360939  3.8382381489
3.8335831125  4.352867709  0.8221996816
0.0  4.0992120549  4.6554052893
3.8335831125  2.1229917481  1.639366822
1.9355382427  1.1207088176  4.8384885836
1.8980448698  5.1014949853  1.8224501163
5.7691213552  5.1014949853  1.8224501163
5.7316279823  1.1207088176  4.8384885836
