Good luck
1.0
8.0504063704  0.0  0.0
0.0  8.0504063704  0.0
0.0  0.0  8.0504063704
p  S  Li
3  12  9
Car
6.955551104  3.4616747393  6.4886275345
4.1379088744  0.2012601593  3.5099771775
5.6191836465  0.9901999836  7.3661218289
7.3699758269  3.7783920261  8.4194165026
7.0711523376  5.1904660196  5.4896676785
5.1081723253  2.714833963  6.3170926027
8.2729039263  2.1630069484  5.7283333543
4.1700481086  2.0196521895  4.3420905331
3.2158172829  -1.0784147904  4.7396841462
6.012227718  -0.4174570096  3.1873010862
3.153542388  0.2812602476  1.7708329445
6.5584888216  2.0116824174  8.8063612024
6.2360835619  1.6391577378  5.5777435562
3.6453389596  1.2670921107  7.5312784886
6.0368232432  -0.9571323317  7.5491040685
6.0297543714  5.0315039815  6.7703917575
3.8078422132  1.0787544536  2.2299625646
5.2005625153  6.3920226581  4.8785462605
1.022401609  2.3104666283  7.9377006812
2.6888357277  7.7444909283  3.5502292093
3.7031869304  1.8757446843  6.9152990722
3.0108519825  1.1109560791  3.9205479024
6.1907624988  5.7077381166  2.5117267876
1.1109560791  3.043053608  2.5841804449
