Good luck                               
   1.00000000000000     
     7.1665370033767521    0.0000000000000000    0.0000000000000000
     0.0000000000000000    5.6824275100432216    0.0000000000000000
     0.0000000000000000    0.0000000000000000    6.9263552282804186
   P    S    Li
     2     8     6
Direct
  0.0000000000000000  0.7926446320765734  0.2668446846118329
  0.5000000000016200  0.2073553679158238  0.7668446846060277
  0.2309451878808630  0.5826779057274436  0.2298643425620668
  0.2690548121207570  0.4173220942649465  0.7298643425562616
  0.7309451878824831  0.4173220942649465  0.7298643425562616
  0.7690548121223841  0.5826779057274436  0.2298643425620668
  0.0000000000000000  0.9948238104065155  0.0214877528360518
  0.5000000000016200  0.0051761895858817  0.5214877528302466
  0.0000000000000000  0.9658283226314737  0.5185279834386520
  0.5000000000016200  0.0341716773785166  0.0185279834300189
  0.0000000000000000  0.3373611384943871  0.9637971231454330
  0.5000000000016200  0.6626388614980101  0.4637971231512381
  0.2319782355294677  0.7017248770446116  0.9552499924902946
  0.2680217644721523  0.2982751229477785  0.4552499924960998
  0.7319782355310949  0.2982751229477785  0.4552499924960998
  0.7680217644737724  0.7017248770446116  0.9552499924902946
 
  0.00000000E+00  0.00000000E+00  0.00000000E+00
  0.00000000E+00  0.00000000E+00  0.00000000E+00
  0.00000000E+00  0.00000000E+00  0.00000000E+00
  0.00000000E+00  0.00000000E+00  0.00000000E+00
  0.00000000E+00  0.00000000E+00  0.00000000E+00
  0.00000000E+00  0.00000000E+00  0.00000000E+00
  0.00000000E+00  0.00000000E+00  0.00000000E+00
  0.00000000E+00  0.00000000E+00  0.00000000E+00
  0.00000000E+00  0.00000000E+00  0.00000000E+00
  0.00000000E+00  0.00000000E+00  0.00000000E+00
  0.00000000E+00  0.00000000E+00  0.00000000E+00
  0.00000000E+00  0.00000000E+00  0.00000000E+00
  0.00000000E+00  0.00000000E+00  0.00000000E+00
  0.00000000E+00  0.00000000E+00  0.00000000E+00
  0.00000000E+00  0.00000000E+00  0.00000000E+00
  0.00000000E+00  0.00000000E+00  0.00000000E+00
