Good luck
1.0
7.166537003376752  0.0  0.0
0.0  5.6824275100432216  0.0
0.0  0.0  6.926355228280419
P  S  Li  
2  8  6  
Car
0.0  4.504145663  1.8482610764
3.5832685017  1.178281847  5.3114386905
1.6550772347  3.311024961  1.5921220909
1.928191267  2.371402549  5.055299705
5.2383457364  2.371402549  5.055299705
5.5114597687  3.311024961  1.5921220909
0.0  5.6530141879  0.1488318092
3.5832685017  0.0294133221  3.6120094233
0.0  5.4882494305  3.5915090091
3.5832685017  0.1941780796  0.1283313949
0.0  1.9170302142  6.6756012429
3.5832685017  3.7653972958  3.2124236288
1.6624806089  3.9875007458  6.6164007798
1.9207878928  1.6949267642  3.1532231657
5.2457491106  1.6949267642  3.1532231657
5.5040563945  3.9875007458  6.6164007798
