Good luck
1.0
7.166537003376752  0.0  0.0
0.0  5.6824275100432216  0.0
0.0  0.0  6.926355228280419
P  S  Li  
2  8  6  
Car
0.0  4.28202803  1.9048202814
3.5832685017  1.40039948  5.3679978955
1.6550772347  3.0771371799  1.7114754383
1.928191267  2.6052903302  5.1746530524
5.2383457364  2.6052903302  5.1746530524
5.5114597687  3.0771371799  1.7114754383
0.0  5.3403808148  0.1475928903
3.5832685017  0.3420466953  3.6107705044
0.0  5.3560176649  3.5941751418
3.5832685017  0.3264098452  0.1309975276
0.0  2.1365681717  6.8321695043
3.5832685017  3.5458593383  3.3689918902
2.0279490699  4.4381115705  6.5787469719
1.5553194318  1.2443159395  3.1155693578
5.6112175716  1.2443159395  3.1155693578
5.1385879335  4.4381115705  6.5787469719
