Good luck                               
   1.00000000000000     
     7.5802241688644809    0.0000000000000000    0.0000000000000000
     0.0000000000000000    6.3334726120258287    0.0000000000000000
     0.0000000000000000    0.0000000000000000    6.0107907704234806
   P    S    Li
     2     8     6
Direct
  0.0000000000000000  0.3193148501913399  0.3003068522002152
  0.4999999999957438  0.6806851498045816  0.8003068521982684
  0.2201941407294896  0.1784947844968130  0.1756532888143809
  0.2798058592662613  0.8215052155149039  0.6756532888124269
  0.7201941407252335  0.8215052155149039  0.6756532888124269
  0.7798058592752000  0.1784947844968130  0.1756532888143809
  0.0000000000000000  0.6296733295139916  0.2136804325513921
  0.4999999999957438  0.3703266704819299  0.7136804325494381
  0.0000000000000000  0.2838968526027728  0.6374100141619223
  0.4999999999957438  0.7161031473931487  0.1374100141638763
  0.0000000000000000  0.6573873725441501  0.7874215826791371
  0.4999999999957438  0.3426126274517713  0.2874215826810911
  0.2559100197943849  0.1865517173559041  0.8012329941673713
  0.2440899802145537  0.8134482826400173  0.3012329941693253
  0.7559100197901358  0.8134482826400173  0.3012329941693253
  0.7440899802102976  0.1865517173559041  0.8012329941673713
 
  0.00000000E+00  0.00000000E+00  0.00000000E+00
  0.00000000E+00  0.00000000E+00  0.00000000E+00
  0.00000000E+00  0.00000000E+00  0.00000000E+00
  0.00000000E+00  0.00000000E+00  0.00000000E+00
  0.00000000E+00  0.00000000E+00  0.00000000E+00
  0.00000000E+00  0.00000000E+00  0.00000000E+00
  0.00000000E+00  0.00000000E+00  0.00000000E+00
  0.00000000E+00  0.00000000E+00  0.00000000E+00
  0.00000000E+00  0.00000000E+00  0.00000000E+00
  0.00000000E+00  0.00000000E+00  0.00000000E+00
  0.00000000E+00  0.00000000E+00  0.00000000E+00
  0.00000000E+00  0.00000000E+00  0.00000000E+00
  0.00000000E+00  0.00000000E+00  0.00000000E+00
  0.00000000E+00  0.00000000E+00  0.00000000E+00
  0.00000000E+00  0.00000000E+00  0.00000000E+00
  0.00000000E+00  0.00000000E+00  0.00000000E+00
