Good luck
1.0
7.580224168864481  0.0  0.0
0.0  6.333472612025829  0.0
0.0  0.0  6.010790770423481
P  S  Li  
2  8  6  
Car
0.0  2.0222087278  1.8052191146
3.7901120844  4.3112638842  4.8106144998
1.6691209474  1.0923374109  1.1036568642
2.120991137  5.2411352011  4.1090522494
5.4592330318  5.2411352011  4.1090522494
5.9111032215  1.0923374109  1.1036568642
0.0  3.9579108248  1.1823654113
3.7901120844  2.3755617872  4.1877607966
0.0  1.9042433068  3.8404387201
3.7901120844  4.4292293052  0.8350433349
0.0  4.1639014464  4.7329566712
3.7901120844  2.1695711656  1.727561286
1.9400068354  1.1815550978  4.8159826333
1.8501052491  5.1519175142  1.8105872481
5.7301189198  5.1519175142  1.8105872481
5.6402173335  1.1815550978  4.8159826333
