Good luck
1.0
7.580224168864481  0.0  0.0
0.0  6.333472612025829  0.0
0.0  0.0  6.010790770423481
P  S  Li  
2  8  6  
Car
0.0  2.0223718583  1.8050816555
3.7901120844  4.3111007537  4.8104770407
1.6691209474  1.130491829  1.0558151672
2.120991137  5.2029807831  4.0612105524
5.4592330318  5.2029807831  4.0612105524
5.9111032215  1.130491829  1.0558151672
0.0  3.988018787  1.2843883718
3.7901120844  2.345453825  4.289783757
0.0  1.7980529406  3.8313382301
3.7901120844  4.5354196714  0.8259428449
0.0  4.1635449195  4.7330263816
3.7901120844  2.1699276925  1.7276309964
1.9398553171  1.1815201926  4.8160438863
1.8502567674  5.1519524194  1.8106485011
5.7299674015  5.1519524194  1.8106485011
5.6403688518  1.1815201926  4.8160438863
