Good luck
1.0
6.9336127435  0.0  0.0
0.0  6.9336127435  0.0
0.0  0.0  6.9336127435
P  S  Li  
2  8  6  
Car
0.0  6.5522640426  0.0693361274
3.4668063718  0.3813487009  3.5361424992
1.6329939232  0.0883105388  5.9480769473
1.8338124485  6.8453022047  2.4812705756
5.099800295  6.8453022047  2.4812705756
5.3006188203  0.0883105388  5.9480769473
0.0  0.6408062403  1.7884065175
3.4668063718  6.2928065032  5.2552128893
6.9336127435  4.590790622  0.4600095845
3.4668063718  2.3428221215  3.9268159563
0.0  2.8081131611  5.9490397339
3.4668063718  4.1254995824  2.4822333622
1.5877973183  1.1995150046  0.7072284998
1.8790090535  5.7340977389  4.1740348716
5.05460369  5.7340977389  4.1740348716
5.3458154252  1.1995150046  0.7072284998
