Good luck                               
   1.00000000000000     
     5.8857780558803574    0.0000000000000000    1.4710305936432500
     0.0000000000000000    6.0149660483876257    0.0000000000000000
     2.4384949800220190    0.0000000000000000    8.1988871297659198
   P    S    Li
     2     8     6
Direct
  0.2826697338577162  0.2001973742299366  0.5066395604273262
  0.2826697338536092  0.7998026257782846  0.0066395604263525
  0.1314898947896369  0.4050254816007118  0.7319708472336111
  0.1314898948024196  0.5949745183903351  0.2319708472310390
  0.9555097584938758  0.1296491009899617  0.4992819194040380
  0.9555097585002352  0.8703508990182522 -0.0007180806063789
  0.4093742000714651  0.9094973515024766  0.5499882522688014
  0.4093742000842478  0.0905026484885711  0.0499882522662296
  0.6028673004265773  0.3718695630554999  0.3219702779952825
  0.6028673004329367  0.6281304369355474  0.8219702779848654
  0.5764042337211966  0.6328497892124330  0.1314506351275453
  0.5764042337253036  0.3671502107957810  0.6314506351285186
  0.8329035076229024  0.0917929743650763  0.8192206518831867
  0.8329035076187955  0.9082070256259707  0.3192206518822133
  0.0584172583915387  0.7193937113223560  0.5538732836221187
  0.0584172583874388  0.2806062886686913  0.0538732836211379
 
  0.00000000E+00  0.00000000E+00  0.00000000E+00
  0.00000000E+00  0.00000000E+00  0.00000000E+00
  0.00000000E+00  0.00000000E+00  0.00000000E+00
  0.00000000E+00  0.00000000E+00  0.00000000E+00
  0.00000000E+00  0.00000000E+00  0.00000000E+00
  0.00000000E+00  0.00000000E+00  0.00000000E+00
  0.00000000E+00  0.00000000E+00  0.00000000E+00
  0.00000000E+00  0.00000000E+00  0.00000000E+00
  0.00000000E+00  0.00000000E+00  0.00000000E+00
  0.00000000E+00  0.00000000E+00  0.00000000E+00
  0.00000000E+00  0.00000000E+00  0.00000000E+00
  0.00000000E+00  0.00000000E+00  0.00000000E+00
  0.00000000E+00  0.00000000E+00  0.00000000E+00
  0.00000000E+00  0.00000000E+00  0.00000000E+00
  0.00000000E+00  0.00000000E+00  0.00000000E+00
  0.00000000E+00  0.00000000E+00  0.00000000E+00
