Good luck
1.0
6.034244649117068  0.0  0.8443397724138505
0.0  5.824743120952149  0.0
1.1925058525481187  0.0  8.9448964507756
P  S  Li  
2  8  6  
Car
2.2503610955  1.0682214183  5.0543685675
1.6541081692  4.7565217027  0.5819203421
1.9493073533  2.96795984  5.7073387237
1.3530544271  2.8567832809  1.2348904983
6.5410322302  0.4077658179  5.0044558064
7.1372851565  5.4169773031  9.4769040317
2.9173886409  5.5193962558  6.4038377162
2.3211357147  0.3053468651  1.9313894908
3.52803881  1.2435173314  3.4969678861
4.1242917363  4.5812257895  7.9694161114
4.1663445414  4.5220757197  1.7904324928
4.7625974677  1.3026674013  6.2628807182
6.3477123191  1.5193691046  7.2432368101
5.7514593928  4.3053740163  2.7707885847
6.4701450407  4.6245854449  6.1969435193
5.8738921144  1.200157676  1.7244952939
