Good luck                               
   1.00000000000000     
     7.5161330289999277   -0.0000558288319338    0.0000040423947543
     0.0000529933680020    6.3840042598179885   -0.0000002232871259
     0.0000032330630947   -0.0000002109850439    6.0079161842278266
   P    S    Li
     2     8     6
Direct
  0.0000003881881005  0.6812687305805408  0.4057655151086385
  0.4999996118085317  0.3187312694157555  0.9057655151065350
  0.2220846377858750  0.8308336283286436  0.2945032099878125
  0.2779153622024798  0.1691663716692846  0.7945032099467534
  0.7220807761385684  0.1691655666511364  0.7945010853569593
  0.7779192238562712  0.8308344333351595  0.2945010853327514
  0.0000008738707578  0.6896067113330078  0.7443344738341415
  0.4999991261620376  0.3103932886614351  0.2443344738241810
  0.0000001186031280  0.3822795607064383  0.2908361498564400
  0.4999998813668841  0.6177204392903942  0.7908361498420111
  0.9999981759471162  0.3484391119959299  0.8931456908900146
  0.5000018240647676  0.6515608880073707  0.3931456908876664
  0.2426272626694765  0.1837948166683956  0.4059893765074182
  0.2573727373334708  0.8162051833224023  0.9059893765003637
  0.7426273645520405  0.8162049545150181  0.9059881202339839
  0.7573726354440788  0.1837950454798090  0.4059881202347502
 
  0.00000000E+00  0.00000000E+00  0.00000000E+00
  0.00000000E+00  0.00000000E+00  0.00000000E+00
  0.00000000E+00  0.00000000E+00  0.00000000E+00
  0.00000000E+00  0.00000000E+00  0.00000000E+00
  0.00000000E+00  0.00000000E+00  0.00000000E+00
  0.00000000E+00  0.00000000E+00  0.00000000E+00
  0.00000000E+00  0.00000000E+00  0.00000000E+00
  0.00000000E+00  0.00000000E+00  0.00000000E+00
  0.00000000E+00  0.00000000E+00  0.00000000E+00
  0.00000000E+00  0.00000000E+00  0.00000000E+00
  0.00000000E+00  0.00000000E+00  0.00000000E+00
  0.00000000E+00  0.00000000E+00  0.00000000E+00
  0.00000000E+00  0.00000000E+00  0.00000000E+00
  0.00000000E+00  0.00000000E+00  0.00000000E+00
  0.00000000E+00  0.00000000E+00  0.00000000E+00
  0.00000000E+00  0.00000000E+00  0.00000000E+00
