Good luck
1.0
6.9336127435  0.0  0.0
0.0  6.9336127435  0.0
0.0  0.0  6.9336127435
P  S  Li  
2  8  6  
Car
0.0  2.1979552397  4.1532340334
3.4668063718  4.7356575038  0.6864276616
1.6329939232  1.0439575756  4.1129355469
1.8338124485  5.8896551679  0.6461291752
5.099800295  5.8896551679  0.6461291752
5.3006188203  1.0439575756  4.1129355469
0.0  3.4089435698  2.5615333723
3.4668063718  3.5246691737  6.0283397441
6.9336127435  3.2949622377  5.8255316672
3.4668063718  3.6386505058  2.3587252955
0.0  6.108512827  0.0069336127
3.4668063718  0.8250999165  3.4737399845
5.3666162635  4.2087029353  6.8157413269
5.0338028518  2.7249098082  3.3489349551
1.8998098917  2.7249098082  3.3489349551
1.56699648  4.2087029353  6.8157413269
