Good luck
1.0
6.9336127435  0.0  0.0
0.0  6.9336127435  0.0
0.0  0.0  6.9336127435
P  S  Li  
2  8  6  
Car
0.0  6.4621270769  0.0832033529
3.4668063718  0.4714856666  3.5500097247
1.6329939232  5.590663112  6.2592640292
1.8338124485  1.3429496315  2.7924576575
5.099800295  1.3429496315  2.7924576575
5.3006188203  5.590663112  6.2592640292
0.0  1.471318706  6.5419320053
3.4668063718  5.4622940375  3.0751256336
6.9336127435  6.2622506342  2.0731915784
3.4668063718  0.6713621093  5.5399979502
0.0  0.8528343675  4.3959104794
3.4668063718  6.080778376  0.9291041076
4.6663213764  1.4283242252  6.6840026847
5.7340977389  5.5052885183  3.217196313
1.1995150046  5.5052885183  3.217196313
2.2672913671  1.4283242252  6.6840026847
