Good luck
1.0
6.9336127435  0.0  0.0
0.0  6.9336127435  0.0
0.0  0.0  6.9336127435
P  S  Li  
2  8  6  
Car
0.1941411568  2.0592829848  6.0253094741
6.7394715867  5.5260893566  0.9083032694
0.1872333072  1.9880097992  1.0904118023
6.7463794363  5.4548161709  5.8432009412
5.5042214837  3.037719  5.3874966262
1.4293912598  6.5045253717  1.5461161173
0.1822392413  0.1986750578  5.2918287182
6.7513735022  3.6654814296  1.6417840253
1.8364833386  3.0127280823  5.3978880062
5.0971294049  6.479534454  1.5357247373
6.9058782925  0.568556245  2.9051837395
0.027734451  4.0353626167  4.028429004
3.8620222981  3.9798937148  0.8805688184
3.0715904454  0.513087343  6.0530439251
2.1702207887  3.7372172687  1.6155317692
4.7633919548  0.270410897  5.3180809743
