Good luck                               
   1.00000000000000     
     7.5802241688644809    0.0000000000000000    0.0000000000000000
     0.0000000000000000    6.3334726120258287    0.0000000000000000
     0.0000000000000000    0.0000000000000000    6.0107907704234806
   P    S    Li
     2     8     6
Direct
  0.0000000000000000  0.3193223751942753  0.3004847032751954
  0.4999999999957438  0.6806776248016462  0.8004847032732485
  0.2201941407294896  0.1634082163606223  0.1976947389263870
  0.2798058592662613  0.8365917836352992  0.6976947389244330
  0.7201941407252335  0.8365917836352992  0.6976947389244330
  0.7798058592752000  0.1634082163606223  0.1976947389263870
  0.0000000000000000  0.6152186399924560  0.1691889817898868
  0.4999999999957438  0.3847813600192538  0.6691889817879328
  0.0000000000000000  0.3287744646193360  0.6395010527423821
  0.4999999999957438  0.6712255353923808  0.1395010527443361
  0.0000000000000000  0.6574332385670729  0.7874297286622323
  0.4999999999957438  0.3425667614288486  0.2874297286641863
  0.2559451454838211  0.1867038113111477  0.8011751406813161
  0.2440548545251175  0.8132961886847738  0.3011751406832701
  0.7559451454795649  0.8132961886847738  0.3011751406832701
  0.7440548545208614  0.1867038113111477  0.8011751406813161
 
  0.00000000E+00  0.00000000E+00  0.00000000E+00
  0.00000000E+00  0.00000000E+00  0.00000000E+00
  0.00000000E+00  0.00000000E+00  0.00000000E+00
  0.00000000E+00  0.00000000E+00  0.00000000E+00
  0.00000000E+00  0.00000000E+00  0.00000000E+00
  0.00000000E+00  0.00000000E+00  0.00000000E+00
  0.00000000E+00  0.00000000E+00  0.00000000E+00
  0.00000000E+00  0.00000000E+00  0.00000000E+00
  0.00000000E+00  0.00000000E+00  0.00000000E+00
  0.00000000E+00  0.00000000E+00  0.00000000E+00
  0.00000000E+00  0.00000000E+00  0.00000000E+00
  0.00000000E+00  0.00000000E+00  0.00000000E+00
  0.00000000E+00  0.00000000E+00  0.00000000E+00
  0.00000000E+00  0.00000000E+00  0.00000000E+00
  0.00000000E+00  0.00000000E+00  0.00000000E+00
  0.00000000E+00  0.00000000E+00  0.00000000E+00
