Good luck
1.0
7.580224168864481  0.0  0.0
0.0  6.333472612025829  0.0
0.0  0.0  6.010790770423481
P  S  Li  
2  8  6  
Car
0.0  2.0223486337  1.8058240021
3.7901120844  4.3111239783  4.8112193873
1.6691209474  0.9669342424  1.3129236878
2.120991137  5.3665383696  4.318319073
5.4592330318  5.3665383696  4.318319073
5.9111032215  0.9669342424  1.3129236878
0.0  3.7862524291  0.7941260508
3.7901120844  2.5472201829  3.799521436
0.0  2.3301069896  3.8210955664
3.7901120844  4.0033656225  0.8157001812
0.0  4.1640315298  4.7327289335
3.7901120844  2.1694410823  1.7273335483
1.9402154547  1.1822491361  4.8158418558
1.8498966297  5.151223476  1.8104464705
5.7303275392  5.151223476  1.8104464705
5.6400087141  1.1822491361  4.8158418558
