Good luck
1.0
7.580224168864481  0.0  0.0
0.0  6.333472612025829  0.0
0.0  0.0  6.010790770423481
P  S  Li  
2  8  6  
Car
0.0  2.0224195177  1.8061506811
3.7901120844  4.3110530943  4.8115460663
1.6691209474  1.0349414629  1.1883017121
2.120991137  5.2985311491  4.1936970973
5.4592330318  5.2985311491  4.1936970973
5.9111032215  1.0349414629  1.1883017121
0.0  3.8964704068  1.0169595702
3.7901120844  2.4370022053  4.0223549554
0.0  2.0822840672  3.8439070255
3.7901120844  4.2511885449  0.8385116403
0.0  4.1638354107  4.7330753454
3.7901120844  2.1696372013  1.7276799602
1.9401215777  1.1824834755  4.8156961411
1.8499905068  5.1509891365  1.8103007559
5.7302336621  5.1509891365  1.8103007559
5.6401025912  1.1824834755  4.8156961411
