Good luck                               
   1.00000000000000     
     7.7673036520102805    0.0000000000000000    0.0000000000000000
     0.0000000000000000    6.1331118586711018    0.0000000000000000
     0.0000000000000000    0.0000000000000000    5.9352826646573904
   P    S    Li
     2     8     6
Direct
  0.0000000000000000  0.7719658297453336  0.4167398813082102
  0.4999999999993392  0.2280341702593773  0.9167398813033785
  0.2088273124072089  0.6049210971514682  0.2983742581874509
  0.2911726875921303  0.3950789028532427  0.7983742581994662
  0.7088273124065481  0.3950789028532427  0.7983742581994662
  0.7911726875914695  0.6049210971514682  0.2983742581874509
  0.0000000000000000  0.0680420705697742  0.2646467002411370
  0.4999999999993392  0.9319579294349438  0.7646467002531523
  0.0000000000000000  0.8101856829131222  0.7569626938331098
  0.4999999999993392  0.1898143170915887  0.2569626938210945
  0.0000000000000000  0.4353549451124081  0.0047849992838778
  0.4999999999993392  0.5646450548923099  0.5047849992790461
  0.2672688048912235  0.7687831022735736  0.9442671757779735
  0.2327311951081157  0.2312168977311373  0.4442671757828052
  0.7672688048905556  0.2312168977311373  0.4442671757828052
  0.7327311951074549  0.7687831022735736  0.9442671757779735
 
  0.00000000E+00  0.00000000E+00  0.00000000E+00
  0.00000000E+00  0.00000000E+00  0.00000000E+00
  0.00000000E+00  0.00000000E+00  0.00000000E+00
  0.00000000E+00  0.00000000E+00  0.00000000E+00
  0.00000000E+00  0.00000000E+00  0.00000000E+00
  0.00000000E+00  0.00000000E+00  0.00000000E+00
  0.00000000E+00  0.00000000E+00  0.00000000E+00
  0.00000000E+00  0.00000000E+00  0.00000000E+00
  0.00000000E+00  0.00000000E+00  0.00000000E+00
  0.00000000E+00  0.00000000E+00  0.00000000E+00
  0.00000000E+00  0.00000000E+00  0.00000000E+00
  0.00000000E+00  0.00000000E+00  0.00000000E+00
  0.00000000E+00  0.00000000E+00  0.00000000E+00
  0.00000000E+00  0.00000000E+00  0.00000000E+00
  0.00000000E+00  0.00000000E+00  0.00000000E+00
  0.00000000E+00  0.00000000E+00  0.00000000E+00
