Good luck
1.0
7.7673036520102805  0.0  0.0
0.0  6.133111858671102  0.0
0.0  0.0  5.93528266465739
P  S  Li  
2  8  6  
Car
0.0  4.7345527849  2.4734689932
3.883651826  1.3985590738  5.4411103255
1.6220251463  3.7482205605  1.7182799618
2.2616266797  2.3848912982  4.6859212941
5.5056769723  2.3848912982  4.6859212941
6.1452785057  3.7482205605  1.7182799618
0.0  0.4620655512  1.6670253382
3.883651826  5.6710463075  4.6346666705
0.0  4.8629552056  4.502288044
3.883651826  1.2701566531  1.5346467116
0.0  2.6700805766  0.0284003233
3.883651826  3.4630312821  2.9960416556
2.0759579643  4.7150327613  5.6044925992
1.8076938617  1.4180790974  2.6368512669
5.9596097903  1.4180790974  2.6368512669
5.6913456877  4.7150327613  5.6044925992
