Good luck
1.0
7.7673036520102805  0.0  0.0
0.0  6.133111858671102  0.0
0.0  0.0  5.93528266465739
P  S  Li  
2  8  6  
Car
0.0  4.7345527849  2.4734689932
3.883651826  1.3985590738  5.4411103255
1.6220251463  3.7100487545  1.7709355622
2.2616266797  2.4230631042  4.7385768946
5.5056769723  2.4230631042  4.7385768946
6.1452785057  3.7100487545  1.7709355622
0.0  0.4173096299  1.5707529722
3.883651826  5.7158022288  4.5383943046
0.0  4.9689594196  4.4927875545
3.883651826  1.1641524391  1.5251462221
0.0  2.6700805766  0.0284003233
3.883651826  3.4630312821  2.9960416556
2.0759579643  4.7150327613  5.6044925992
1.8076938617  1.4180790974  2.6368512669
5.9596097903  1.4180790974  2.6368512669
5.6913456877  4.7150327613  5.6044925992
