Good luck                               
   1.00000000000000     
     7.1753333292012300    0.0000000000000000    0.0000000000000000
     0.0000000000000000    5.6814778681246496    0.0000000000000000
     0.0000000000000000    0.0000000000000000    6.9237073439811017
   P    S    Li
     2     8     6
Direct
  0.0000000000000000  0.7529626945835588  0.2752811484235949
  0.4999999999999147  0.2470373054120998  0.7752811484249591
  0.2305922217531560  0.5437300911672267  0.2351467648636714
  0.2694077782467588  0.4562699088284319  0.7351467648650356
  0.7305922217530707  0.4562699088284319  0.7351467648650356
  0.7694077782466735  0.5437300911672267  0.2351467648636714
  0.0000000000000000  0.9604976621164383  0.0326359006633083
  0.4999999999999147  0.0395023378792274  0.5326359006646726
  0.0000000000000000  0.9209289845085777  0.5296563480817724
  0.4999999999999147  0.0790710154870808  0.0296563480804082
  0.0000000000000000  0.3751111511067933  0.9864480442457335
  0.4999999999999147  0.6248888488888724  0.4864480442443693
  0.2829243369277705  0.7815334841153998  0.9505693621238009
  0.2170756630721442  0.2184665158802588  0.4505693621368820
  0.7829243369276853  0.2184665158802588  0.4505693621368820
  0.7170756630720589  0.7815334841153998  0.9505693621238009
 
  0.00000000E+00  0.00000000E+00  0.00000000E+00
  0.00000000E+00  0.00000000E+00  0.00000000E+00
  0.00000000E+00  0.00000000E+00  0.00000000E+00
  0.00000000E+00  0.00000000E+00  0.00000000E+00
  0.00000000E+00  0.00000000E+00  0.00000000E+00
  0.00000000E+00  0.00000000E+00  0.00000000E+00
  0.00000000E+00  0.00000000E+00  0.00000000E+00
  0.00000000E+00  0.00000000E+00  0.00000000E+00
  0.00000000E+00  0.00000000E+00  0.00000000E+00
  0.00000000E+00  0.00000000E+00  0.00000000E+00
  0.00000000E+00  0.00000000E+00  0.00000000E+00
  0.00000000E+00  0.00000000E+00  0.00000000E+00
  0.00000000E+00  0.00000000E+00  0.00000000E+00
  0.00000000E+00  0.00000000E+00  0.00000000E+00
  0.00000000E+00  0.00000000E+00  0.00000000E+00
  0.00000000E+00  0.00000000E+00  0.00000000E+00
