Good luck
1.0
7.17533332920123  0.0  0.0
0.0  5.68147786812465  0.0
0.0  0.0  6.923707343981102
P  S  Li  
2  8  6  
Car
0.0  4.2779408848  1.905966109
3.5876666646  1.4035369833  5.367819781
1.6545760542  3.0891904792  1.6280873828
1.9330906104  2.5922873889  5.0899410548
5.2422427188  2.5922873889  5.0899410548
5.520757275  3.0891904792  1.6280873828
0.0  5.4570462097  0.2259614251
3.5876666646  0.2244316584  3.6878150971
0.0  5.2322376436  3.667185547
3.5876666646  0.4492402245  0.205331875
0.0  2.1311857031  6.8298775684
3.5876666646  3.550292165  3.3680238964
2.0300764244  4.4402651932  6.5814640735
1.5575902402  1.2412126749  3.1196104016
5.617743089  1.2412126749  3.1196104016
5.1452569048  4.4402651932  6.5814640735
