Good luck                               
   1.00000000000000     
     7.6671662250539709    0.0000000000000000    0.0000000000000000
     0.0000000000000000    6.2222038029208289    0.0000000000000000
     0.0000000000000000    0.0000000000000000    6.0320769346648708
   P    S    Li
     2     8     6
Direct
  0.0000000000000000  0.3308799216659466  0.2982249780108219
  0.4999999999964828  0.6691200783307067  0.7982249780054431
  0.2181884429260847  0.1858904770134728  0.1775093788255049
  0.2818115570703981  0.8141095229992530  0.6775093788201261
  0.7181884429225676  0.8141095229992530  0.6775093788201261
  0.7818115570799193  0.1858904770134728  0.1775093788255049
  0.0000000000000000  0.6462736845926429  0.2246079021330090
  0.4999999999964828  0.3537263154040104  0.7246079021276373
  0.0000000000000000  0.2719748454246371  0.6321885482735254
  0.4999999999964828  0.7280251545880816  0.1321885482789042
  0.0000000000000000  0.6585740661012096  0.7722451075566070
  0.4999999999964828  0.3414259339115091  0.2722451075619858
  0.2524490029934583  0.1799194919932532  0.8022591119966975
  0.2475509970030245  0.8200805080194726  0.3022591119854994
  0.7524490029899411  0.8200805080194726  0.3022591119854994
  0.7475509970125458  0.1799194919932532  0.8022591119966975
 
  0.00000000E+00  0.00000000E+00  0.00000000E+00
  0.00000000E+00  0.00000000E+00  0.00000000E+00
  0.00000000E+00  0.00000000E+00  0.00000000E+00
  0.00000000E+00  0.00000000E+00  0.00000000E+00
  0.00000000E+00  0.00000000E+00  0.00000000E+00
  0.00000000E+00  0.00000000E+00  0.00000000E+00
  0.00000000E+00  0.00000000E+00  0.00000000E+00
  0.00000000E+00  0.00000000E+00  0.00000000E+00
  0.00000000E+00  0.00000000E+00  0.00000000E+00
  0.00000000E+00  0.00000000E+00  0.00000000E+00
  0.00000000E+00  0.00000000E+00  0.00000000E+00
  0.00000000E+00  0.00000000E+00  0.00000000E+00
  0.00000000E+00  0.00000000E+00  0.00000000E+00
  0.00000000E+00  0.00000000E+00  0.00000000E+00
  0.00000000E+00  0.00000000E+00  0.00000000E+00
  0.00000000E+00  0.00000000E+00  0.00000000E+00
