Good luck
1.0
7.667166225053971  0.0  0.0
0.0  6.222203802920829  0.0
0.0  0.0  6.032076934664871
P  S  Li  
2  8  6  
Car
0.0  2.0589009987  1.79872841
3.8335831125  4.1633028043  4.8147668773
1.6728870603  1.144176282  1.0864182877
2.1606960522  5.0780275209  4.1024567551
5.5064701728  5.0780275209  4.1024567551
5.9942791648  1.144176282  1.0864182877
0.0  4.013296397  1.3204828026
3.8335831125  2.208907406  4.3365212699
0.0  1.7275951991  3.8193121874
3.8335831125  4.4946086039  0.8032737201
0.0  4.0977075732  4.6586688485
3.8335831125  2.1244962297  1.6426303812
1.9358468108  1.1193624559  4.8389561437
1.8977363017  5.102841347  1.8229176764
5.7694299233  5.102841347  1.8229176764
5.7313194143  1.1193624559  4.8389561437
