Good luck
1.0
7.667166225053971  0.0  0.0
0.0  6.222203802920829  0.0
0.0  0.0  6.032076934664871
P  S  Li  
2  8  6  
Car
0.0  2.0588023069  1.7989160112
3.8335831125  4.163401496  4.8149544785
1.6728870603  1.156648433  1.0707502297
2.1606960522  5.06555537  4.086788697
5.5064701728  5.06555537  4.086788697
5.9942791648  1.156648433  1.0707502297
0.0  4.021246578  1.3548521458
3.8335831125  2.2009572249  4.3708906131
0.0  1.6922829175  3.8134099604
3.8335831125  4.5299208855  0.7973714931
0.0  4.0977820586  4.6582419012
3.8335831125  2.1244217444  1.6422034339
1.9355684693  1.1194957473  4.8392886851
1.8980146432  5.1027080557  1.8232502177
5.7691515818  5.1027080557  1.8232502177
5.7315977558  1.1194957473  4.8392886851
