Good luck                               
   1.00000000000000     
     7.7575881786704857    0.0000000000000000    0.0000000000000000
     0.0000000000000000    6.1316296069622078    0.0000000000000000
     0.0000000000000000    0.0000000000000000    5.9376690187699293
   P    S    Li
     2     8     6
Direct
  0.0000000000000000  0.2707574815640035  0.3348630066176486
  0.4999999999993676  0.7292425184309943  0.8348630066298842
  0.2089027279719190  0.1032919678398277  0.2165567738412315
  0.2910972720274487  0.8967080321551771  0.7165567738365916
  0.7089027279712936  0.8967080321551771  0.7165567738365916
  0.7910972720268163  0.1032919678398277  0.2165567738412315
  0.0000000000000000  0.5667185221444456  0.1812010041498541
  0.4999999999993676  0.4332814778505593  0.6812010041452141
  0.0000000000000000  0.3101028853174408  0.6748878971260103
  0.4999999999993676  0.6898971146775642  0.1748878971306572
  0.0000000000000000  0.9356145293119306  0.9226023450191918
  0.4999999999993676  0.0643854706993814  0.4226023450069636
  0.2673434016470166  0.2707693141345908  0.8644092947508422
  0.2326565983523511  0.7292306858604070  0.3644092947554817
  0.7673434016463840  0.7292306858604070  0.3644092947554817
  0.7326565983517188  0.2707693141345908  0.8644092947508422
 
  0.00000000E+00  0.00000000E+00  0.00000000E+00
  0.00000000E+00  0.00000000E+00  0.00000000E+00
  0.00000000E+00  0.00000000E+00  0.00000000E+00
  0.00000000E+00  0.00000000E+00  0.00000000E+00
  0.00000000E+00  0.00000000E+00  0.00000000E+00
  0.00000000E+00  0.00000000E+00  0.00000000E+00
  0.00000000E+00  0.00000000E+00  0.00000000E+00
  0.00000000E+00  0.00000000E+00  0.00000000E+00
  0.00000000E+00  0.00000000E+00  0.00000000E+00
  0.00000000E+00  0.00000000E+00  0.00000000E+00
  0.00000000E+00  0.00000000E+00  0.00000000E+00
  0.00000000E+00  0.00000000E+00  0.00000000E+00
  0.00000000E+00  0.00000000E+00  0.00000000E+00
  0.00000000E+00  0.00000000E+00  0.00000000E+00
  0.00000000E+00  0.00000000E+00  0.00000000E+00
  0.00000000E+00  0.00000000E+00  0.00000000E+00
