Good luck
1.0
7.777662492609822  0.0  0.0
0.0  6.132635879530652  0.0
0.0  0.0  5.925664674055015
P  S  Li  
2  8  6  
Car
0.0  1.6500186735  1.9904372021
3.8888312463  4.482617206  4.9532695392
1.6221001451  0.616295129  1.3034955486
2.2667311012  5.5163407505  4.2663278856
5.5109313914  5.5163407505  4.2663278856
6.1555623475  0.616295129  1.3034955486
0.0  3.4564155346  1.0640721044
3.8888312463  2.6762203449  4.0269044414
0.0  1.9166164137  4.0051492817
3.8888312463  4.2160194658  1.0423169447
0.0  5.7200945328  5.4484749872
3.8888312463  0.4125413468  2.4856426501
2.0821494547  1.6570860726  5.1099869968
1.8066817916  4.4755498069  2.1471546598
5.970980701  4.4755498069  2.1471546598
5.6955130379  1.6570860726  5.1099869968
