Good luck                               
   1.00000000000000     
     7.5802241688644809    0.0000000000000000    0.0000000000000000
     0.0000000000000000    6.3334726120258287    0.0000000000000000
     0.0000000000000000    0.0000000000000000    6.0107907704234806
   P    S    Li
     2     8     6
Direct
  0.0000000000000000  0.3194043669280120  0.3003813851389125
  0.4999999999957438  0.6805956330679095  0.8003813851369586
  0.2201941407294896  0.1634902081259355  0.1975914207734633
  0.2798058592662613  0.8365097918857742  0.6975914207715093
  0.7201941407252335  0.8365097918857742  0.6975914207715093
  0.7798058592752000  0.1634902081259355  0.1975914207734633
  0.0000000000000000  0.6153006317103973  0.1690856636536040
  0.4999999999957438  0.3846993682855242  0.6690856636516500
  0.0000000000000000  0.3288564563688539  0.6393977345894584
  0.4999999999957438  0.6711435436270676  0.1393977345914124
  0.0000000000000000  0.6572969779478441  0.7873909679718523
  0.4999999999957438  0.3427030220480773  0.2873909679737991
  0.2558609805850267  0.1865027048600751  0.8009640197575578
  0.2441390194107171  0.8134972951358534  0.3009640197595047
  0.7558609805807777  0.8134972951358534  0.3009640197595047
  0.7441390194196558  0.1865027048600751  0.8009640197575578
 
  0.00000000E+00  0.00000000E+00  0.00000000E+00
  0.00000000E+00  0.00000000E+00  0.00000000E+00
  0.00000000E+00  0.00000000E+00  0.00000000E+00
  0.00000000E+00  0.00000000E+00  0.00000000E+00
  0.00000000E+00  0.00000000E+00  0.00000000E+00
  0.00000000E+00  0.00000000E+00  0.00000000E+00
  0.00000000E+00  0.00000000E+00  0.00000000E+00
  0.00000000E+00  0.00000000E+00  0.00000000E+00
  0.00000000E+00  0.00000000E+00  0.00000000E+00
  0.00000000E+00  0.00000000E+00  0.00000000E+00
  0.00000000E+00  0.00000000E+00  0.00000000E+00
  0.00000000E+00  0.00000000E+00  0.00000000E+00
  0.00000000E+00  0.00000000E+00  0.00000000E+00
  0.00000000E+00  0.00000000E+00  0.00000000E+00
  0.00000000E+00  0.00000000E+00  0.00000000E+00
  0.00000000E+00  0.00000000E+00  0.00000000E+00
