Good luck
1.0
7.580224168864481  0.0  0.0
0.0  6.333472612025829  0.0
0.0  0.0  6.010790770423481
P  S  Li  
2  8  6  
Car
0.0  2.0229388101  1.8055296574
3.7901120844  4.3105338019  4.8109250426
1.6691209474  1.0354607555  1.1876806883
2.120991137  5.2980118566  4.1930760735
5.4592330318  5.2980118566  4.1930760735
5.9111032215  1.0354607555  1.1876806883
0.0  3.8969896991  1.0163385465
3.7901120844  2.4364829129  4.0217339317
0.0  2.0828033597  3.8432860017
3.7901120844  4.2506692523  0.8378906165
0.0  4.1629724078  4.732842363
3.7901120844  2.1705002042  1.7274469778
1.9394835889  1.1812097733  4.8144271374
1.8506284955  5.1522628387  1.8090317522
5.7295956733  5.1522628387  1.8090317522
5.64074058  1.1812097733  4.8144271374
