Good luck
1.0
7.580224168864481  0.0  0.0
0.0  6.333472612025829  0.0
0.0  0.0  6.010790770423481
P  S  Li  
2  8  6  
Car
0.0  2.0228214133  1.8057565076
3.7901120844  4.3106511987  4.8111518928
1.6691209474  1.0690323796  1.1370736708
2.120991137  5.2644402324  4.142469056
5.4592330319  5.2644402324  4.142469056
5.9111032214  1.0690323796  1.1370736708
0.0  3.9356070521  1.115727201
3.7901120844  2.3978655599  4.1211225862
0.0  1.9759559937  3.8438532461
3.7901120844  4.3575166184  0.8384578608
0.0  4.1631173821  4.7328243166
3.7901120844  2.17035523  1.7274289313
1.9394467206  1.1811319143  4.8144826201
1.8506653639  5.1523406978  1.8090872349
5.729558805  5.1523406978  1.8090872349
5.6407774483  1.1811319143  4.8144826201
