Good luck                               
   1.00000000000000     
     7.4487728766144965    0.0000000000000000    0.0000000000000000
     0.0000000000000000    6.4320624804624398    0.0000000000000000
     0.0000000000000000    0.0000000000000000    5.9896722657001371
   P    S    Li
     2     8     6
Direct
 -0.0000000000000000  0.8166284368286025  0.9594044021550736
  0.5000000000008242  0.1833715631578262  0.4594044021661650
  0.2234733756226744  0.6655663838595891  0.0691042566734026
  0.2765266243781500  0.3344336161422655  0.5691042566793143
  0.7234733756234988  0.3344336161422655  0.5691042566793142
  0.7765266243789739  0.6655663838595891  0.0691042566734026
 -0.0000000000000000  0.8129979355702379  0.6200276600982192
  0.5000000000008242  0.1870020644316166  0.1200276600923074
 -0.0000000000000000  0.1121764770128539  0.0784033356079984
  0.5000000000008242  0.8878235229890007  0.5784033355969065
 -0.0000000000000000  0.1521662478068237  0.4754308125309318
  0.5000000000008242  0.8478337521795980 -0.0245691874749800
  0.7593796759023941  0.3142114704192254  0.9586159977698069
  0.7406203241000785  0.6857885295826290  0.4586159977638954
  0.2593796759015701  0.6857885295826290  0.4586159977638954
  0.2406203240992542  0.3142114704192254  0.9586159977698069
 
  0.00000000E+00  0.00000000E+00  0.00000000E+00
  0.00000000E+00  0.00000000E+00  0.00000000E+00
  0.00000000E+00  0.00000000E+00  0.00000000E+00
  0.00000000E+00  0.00000000E+00  0.00000000E+00
  0.00000000E+00  0.00000000E+00  0.00000000E+00
  0.00000000E+00  0.00000000E+00  0.00000000E+00
  0.00000000E+00  0.00000000E+00  0.00000000E+00
  0.00000000E+00  0.00000000E+00  0.00000000E+00
  0.00000000E+00  0.00000000E+00  0.00000000E+00
  0.00000000E+00  0.00000000E+00  0.00000000E+00
  0.00000000E+00  0.00000000E+00  0.00000000E+00
  0.00000000E+00  0.00000000E+00  0.00000000E+00
  0.00000000E+00  0.00000000E+00  0.00000000E+00
  0.00000000E+00  0.00000000E+00  0.00000000E+00
  0.00000000E+00  0.00000000E+00  0.00000000E+00
  0.00000000E+00  0.00000000E+00  0.00000000E+00
