Good luck
1.0
7.276460292388013  0.0  0.0
0.0  6.481007615287987  0.0
0.0  0.0  5.880689530930471
P  S  Li  
2  8  6  
Car
0.0  4.8728936954  5.4157403561
3.6382301462  1.6081139198  2.4753955907
1.6250121882  3.8997432035  0.2426629223
2.013217958  2.5812644118  3.1830076878
5.2632423344  2.5812644118  3.1830076878
5.6514481042  3.8997432035  0.2426629223
0.0  5.2190462402  3.4112002764
3.6382301462  1.2619613751  0.4708555109
0.0  0.2760785148  0.3973449252
3.6382301462  6.2049291005  3.3376896906
0.0  2.0766283622  3.7295037365
3.6382301462  4.404379253  0.789158971
5.389761038  2.0022611579  5.5966843067
5.5249294006  4.4787464574  2.6563395412
1.7515308918  4.4787464574  2.6563395412
1.8866992544  2.0022611579  5.5966843067
