Good luck                               
   1.00000000000000     
     7.7097590754902301    0.0000000000000000    0.0000000000000000
     0.0000000000000000    6.1495228617229412    0.0000000000000000
     0.0000000000000000    0.0000000000000000    5.9194319848598989
   P    S    Li
     2     8     6
Direct
 -0.0000000000000000  0.7721026323123713  0.5025554689581591
  0.5000000000051585  0.2278973676957218  0.0025554689616834
  0.2098260391021848  0.6040187114735114  0.3844200992259474
  0.2901739609029737  0.3959812885345889  0.8844200992224304
  0.7098260391073434  0.3959812885345889  0.8844200992224304
  0.7901739608953140  0.6040187114735114  0.3844200992259474
 -0.0000000000000000  0.0655805639759167  0.3455008210397187
  0.5000000000051585  0.9344194360158978  0.8455008210361944
 -0.0000000000000000  0.8176310625849709  0.8418980723549816
  0.5000000000051585  0.1823689374231294  0.3418980723585057
 -0.0000000000000000  0.4344784984252799  0.0923839000010594
  0.5000000000051585  0.5655215015828130  0.5923838999975350
  0.2688971363026102  0.7703291914368499  0.0309040871407234
  0.2311028637025554  0.2296708085712504  0.5309040871371989
  0.7688971363077687  0.2296708085712504  0.5309040871371989
  0.7311028636948887  0.7703291914368499  0.0309040871407234
 
  0.00000000E+00  0.00000000E+00  0.00000000E+00
  0.00000000E+00  0.00000000E+00  0.00000000E+00
  0.00000000E+00  0.00000000E+00  0.00000000E+00
  0.00000000E+00  0.00000000E+00  0.00000000E+00
  0.00000000E+00  0.00000000E+00  0.00000000E+00
  0.00000000E+00  0.00000000E+00  0.00000000E+00
  0.00000000E+00  0.00000000E+00  0.00000000E+00
  0.00000000E+00  0.00000000E+00  0.00000000E+00
  0.00000000E+00  0.00000000E+00  0.00000000E+00
  0.00000000E+00  0.00000000E+00  0.00000000E+00
  0.00000000E+00  0.00000000E+00  0.00000000E+00
  0.00000000E+00  0.00000000E+00  0.00000000E+00
  0.00000000E+00  0.00000000E+00  0.00000000E+00
  0.00000000E+00  0.00000000E+00  0.00000000E+00
  0.00000000E+00  0.00000000E+00  0.00000000E+00
  0.00000000E+00  0.00000000E+00  0.00000000E+00
