Good luck
1.0
7.797976065319508  0.0  0.0
0.0  6.141137058250284  0.0
0.0  0.0  5.928863832241774
P  S  Li  
2  8  6  
Car
0.0  4.7373318281  2.9801133475
3.8989880327  1.4038052302  0.0156814314
1.6233813448  3.6854755554  2.3258582818
2.2756066879  2.4556615029  5.2902901979
5.5223693775  2.4556615029  5.2902901979
6.1745947205  3.6854755554  2.3258582818
0.0  0.3758269482  2.0055891618
3.8989880327  5.76531011  4.9700210779
0.0  5.0410202497  4.9868622063
3.8989880327  1.1001168086  2.0224302902
0.0  2.6548081179  0.5334442151
3.8989880327  3.4863289404  3.4978761312
2.0789759084  4.7039334798  0.1671582303
1.8200121243  1.4372035785  3.1315901464
5.9779639411  1.4372035785  3.1315901464
5.7190001569  4.7039334798  0.1671582303
