Good luck
1.0
6.9336127435  0.0  0.0
0.0  6.9336127435  0.0
0.0  0.0  6.9336127435
P  S  Li  
2  8  6  
Car
0.0  2.8081131611  5.2903465233
3.4668063718  4.1254995824  1.8235401515
1.6329939232  3.0284405135  4.1568605576
1.8338124485  3.90517223  0.6900541858
5.099800295  3.90517223  0.6900541858
5.3006188203  3.0284405135  4.1568605576
0.0  4.1907770342  6.7354224189
3.4668063718  2.7428357093  3.2686160472
6.9336127435  0.9847945832  6.112242559
3.4668063718  5.9488181603  2.6454361873
0.0  6.0461103123  6.8989446798
3.4668063718  0.8875024312  3.432138308
0.0  0.0138672255  3.1062585091
3.4668063718  6.919745518  6.5730648808
0.0  2.2187560779  2.4752997494
3.4668063718  4.7148566656  5.9421061212
