Good luck
1.0
6.9336127435  0.0  0.0
0.0  6.9336127435  0.0
0.0  0.0  6.9336127435
P  S  Li  
2  8  6  
Car
0.0  3.0785240581  1.7056687349
3.4668063718  3.8550886854  5.1724751067
1.6329939232  1.9934599771  1.3107377071
1.8338124485  4.9401527664  4.7775440789
5.099800295  4.9401527664  4.7775440789
5.3006188203  1.9934599771  1.3107377071
0.0  4.7221049548  0.5660874232
3.4668063718  2.2115077887  4.032893795
6.9336127435  3.6050713235  3.6351121021
3.4668063718  3.32854142  0.1683057304
0.0  6.4690606897  4.811927244
3.4668063718  0.4645520538  1.3451208722
0.0  2.7110425827  6.7464051994
3.4668063718  4.2225701608  3.2795988277
0.0  5.6855624497  2.4406316857
3.4668063718  1.2480502938  5.9074380575
