Good luck
1.0
6.9336127435  0.0  0.0
0.0  6.9336127435  0.0
0.0  0.0  6.9336127435
P  S  Li  
2  8  6  
Car
0.0  4.4721802196  1.2688511321
3.4668063718  2.4614325239  4.7356575038
1.6329939232  5.4619522246  1.8635661517
1.8338124485  1.4716605189  5.3303725235
5.099800295  1.4716605189  5.3303725235
5.3006188203  5.4619522246  1.8635661517
0.0  2.6413541679  2.0738851056
3.4668063718  4.2922585756  5.5406914774
6.9336127435  4.323462261  6.2079998626
3.4668063718  2.6101504825  2.7411934909
0.0  3.8412214599  3.6470803031
3.4668063718  3.0923912836  0.1802739313
0.0  6.3373220476  2.8358476121
3.4668063718  0.5962906959  6.3026539838
0.0  0.4229503774  0.7418965636
3.4668063718  6.5106623661  4.2087029353
