Automatic mesh
0
Monkhorst-pack
4 4 4
0 0 0
