Good luck
1.0
7.9370052598  0.0  0.0
0.0  7.9370052598  0.0
0.0  0.0  7.9370052598
P  S  Li
2  8  6
Car
6.8178875182  4.1431167456  0.976251647
7.0083756444  0.3571652367  6.1432420711
6.8403855267  6.1260724282  1.2358207286
6.9111263793  3.2366175867  2.7565790517
8.390576379  3.5980232564  -0.1325869534
5.1294617878  3.6117537112  0.0451937609
8.1448595374  1.4307848336  7.3905389219
8.1031348504  -0.2171047003  4.5710714632
5.4720270063  1.4724480548  5.5141306343
6.3134811836  -1.2574672414  7.097227265
4.2939198456  2.5795267094  1.8969442571
5.6193997239  6.3496042078  2.809699862
6.2781711605  1.3810389152  0.4920943261
1.6429600888  1.5159680046  6.26229715
3.9764396352  4.0716836983  4.3494788824
2.809699862  6.7861394971  7.8496982019
