Good luck                               
   1.00000000000000     
     7.5802241688644809    0.0000000000000000    0.0000000000000000
     0.0000000000000000    6.3334726120258287    0.0000000000000000
     0.0000000000000000    0.0000000000000000    6.0107907704234806
   P    S    Li
     2     8     6
Direct
  0.0000000000000000  0.3193230726947291  0.3003532636310382
  0.4999999999957438  0.6806769273011923  0.8003532636290842
  0.2201941407294896  0.1764597889438946  0.1783082704481629
  0.2798058592662613  0.8235402110678223  0.6783082704462089
  0.7201941407252335  0.8235402110678223  0.6783082704462089
  0.7798058592752000  0.1764597889438946  0.1783082704481629
  0.0000000000000000  0.6281994696156730  0.2080327570962694
  0.4999999999957438  0.3718005303960439  0.7080327570943155
  0.0000000000000000  0.2894939866509532  0.6380563959523400
  0.4999999999957438  0.7105060133449683  0.1380563959542940
  0.0000000000000000  0.6574255967877605  0.7874105266629599
  0.4999999999957438  0.3425744032081610  0.2874105266649138
  0.2559237216846881  0.1865370431943987  0.8012163636101235
  0.2440762783110628  0.8134629568015228  0.3012163636120775
  0.7559237216936268  0.8134629568015228  0.3012163636120775
  0.7440762783068067  0.1865370431943987  0.8012163636101235
 
  0.00000000E+00  0.00000000E+00  0.00000000E+00
  0.00000000E+00  0.00000000E+00  0.00000000E+00
  0.00000000E+00  0.00000000E+00  0.00000000E+00
  0.00000000E+00  0.00000000E+00  0.00000000E+00
  0.00000000E+00  0.00000000E+00  0.00000000E+00
  0.00000000E+00  0.00000000E+00  0.00000000E+00
  0.00000000E+00  0.00000000E+00  0.00000000E+00
  0.00000000E+00  0.00000000E+00  0.00000000E+00
  0.00000000E+00  0.00000000E+00  0.00000000E+00
  0.00000000E+00  0.00000000E+00  0.00000000E+00
  0.00000000E+00  0.00000000E+00  0.00000000E+00
  0.00000000E+00  0.00000000E+00  0.00000000E+00
  0.00000000E+00  0.00000000E+00  0.00000000E+00
  0.00000000E+00  0.00000000E+00  0.00000000E+00
  0.00000000E+00  0.00000000E+00  0.00000000E+00
  0.00000000E+00  0.00000000E+00  0.00000000E+00
