Good luck
1.0
7.580224168864481  0.0  0.0
0.0  6.333472612025829  0.0
0.0  0.0  6.010790770423481
P  S  Li  
2  8  6  
Car
0.0  2.0224239353  1.8053606249
3.7901120844  4.3110486767  4.8107560101
1.6691209474  1.1176032404  1.0717737063
2.120991137  5.2158693717  4.0771690915
5.4592330318  5.2158693717  4.0771690915
5.9111032215  1.1176032404  1.0717737063
0.0  3.9786841357  1.2504413763
3.7901120844  2.3547884764  4.2558367615
0.0  1.8335022358  3.8352234958
3.7901120844  4.4999703762  0.8298281106
0.0  4.1637870117  4.7329599262
3.7901120844  2.1696856003  1.727564541
1.9399591805  1.1814272542  4.8159439235
1.8501529039  5.1520453578  1.8105485383
5.730071265  5.1520453578  1.8105485383
5.6402649883  1.1814272542  4.8159439235
