Good luck
1.0
7.580224168864481  0.0  0.0
0.0  6.333472612025829  0.0
0.0  0.0  6.010790770423481
P  S  Li  
2  8  6  
Car
0.0  2.022482225  1.8052370569
3.7901120844  4.3109903871  4.8106324421
1.6691209474  1.0040217579  1.2399154367
2.120991137  5.3294508541  4.2453108219
5.4592330318  5.3294508541  4.2453108219
5.9111032215  1.0040217579  1.2399154367
0.0  3.8526617209  0.9190472597
3.7901120844  2.4808108912  3.9244426449
0.0  2.188912659  3.8370676585
3.7901120844  4.1445599531  0.8316722733
0.0  4.1637321856  4.733033796
3.7901120844  2.1697404264  1.7276384107
1.9398098916  1.1813473937  4.8159474127
1.8503021928  5.1521252183  1.8105520274
5.7299219761  5.1521252183  1.8105520274
5.6404142772  1.1813473937  4.8159474127
