Good luck
1.0
6.9336127435  0.0  0.0
0.0  6.9336127435  0.0
0.0  0.0  6.9336127435
P  S  Li  
2  8  6  
Car
0.0  1.7750048623  6.3581228858
3.4668063718  5.1586078812  2.891316514
1.6329939232  2.9121634351  6.1576111481
1.8338124485  4.0214493084  2.6908047763
5.099800295  4.0214493084  2.6908047763
5.3006188203  2.9121634351  6.1576111481
0.0  0.9214127084  1.2332069562
3.4668063718  6.0122000351  4.700013328
6.9336127435  0.3542798706  4.9504495473
3.4668063718  6.5793328729  1.4836431755
0.0  5.1794087194  3.6817483668
3.4668063718  1.7542040241  0.214941995
2.3574283328  0.6448259851  5.352749038
1.109378039  6.2887867584  1.8859426662
5.8242347045  6.2887867584  1.8859426662
4.5761844107  0.6448259851  5.352749038
