Good luck
1.0
7.516133028999928  -5.58288319338e-05  4.0423947543e-06
5.2993368002e-05  6.3840042598179885  -2.232871259e-07
3.2330630947e-06  -2.109850439e-07  6.007916184227827
P  S  Li  
2  8  6  
Car
4.03323e-05  4.3492223925  2.4378050531
3.7580834159  2.0347536762  5.4417652474
1.6692626621  5.3040329616  1.7693513138
2.0888603666  1.079943154  4.7733097794
5.4272957292  1.0799183566  4.7733115749
5.8469603285  5.3040019302  1.7693535607
4.55192e-05  4.4024520257  4.4718989779
3.7580771851  1.9815241112  1.4679429916
2.209e-05  2.4404742826  1.7473191263
3.758100915  3.9435018346  4.7512791871
7.5161406717  2.2243807581  5.3659484158
3.7581160238  4.1595394871  2.3619882348
1.8236298352  1.1733332613  2.4391510855
1.9344939144  5.2106428073  5.443109096
5.5817314798  5.2106157161  5.4431110576
5.6925252988  1.1733045237  2.4391531663
