Good luck
1.0
6.9336127435  0.0  0.0
0.0  6.9336127435  0.0
0.0  0.0  6.9336127435
P  S  Li  
2  8  6  
Car
0.0  4.1463004206  3.7718853325
3.4668063718  2.7873123229  0.3050789607
1.6329939232  5.2714065836  4.0316365571
1.8338124485  1.6622061599  0.5648301854
5.099800295  1.6622061599  0.5648301854
5.3006188203  5.2714065836  4.0316365571
0.0  2.6538505529  5.1032745026
3.4668063718  4.2797621906  1.6364681308
6.9336127435  3.3885379624  1.920993713
3.4668063718  3.5450747811  5.3878000848
0.0  5.325014587  6.4482598515
3.4668063718  1.6085981565  2.9814534797
2.3296938818  2.7318434209  3.8689559109
1.1371124899  4.2017693226  0.4021495391
5.7965002536  4.2017693226  0.4021495391
4.6039188617  2.7318434209  3.8689559109
