Good luck                               
   1.00000000000000     
     7.5161330289999277   -0.0000558288319338    0.0000040423947543
     0.0000529933680020    6.3840042598179885   -0.0000002232871259
     0.0000032330630947   -0.0000002109850439    6.0079161842278266
   P    S    Li
     2     8     6
Direct
  0.0000007888369069  0.6288024913064163  0.3343377440540110
  0.4999992111671432  0.3711975086890504  0.8343377440498827
  0.2172646934298612  0.8091917663990884  0.3202471395928299
  0.2827353065757379  0.1908082336048622  0.8202471395846658
  0.7172646934291436  0.1908082335998671  0.8202471395781217
  0.7827353065764626  0.8091917663934183  0.3202471395836071
  0.0000018057945539  0.4671681366471816  0.6195038111510698
  0.4999981942019502  0.5328318633555611  0.1195038111499045
  0.0000023034547922  0.4296620957027741  0.0773525935246440
  0.4999976965490518  0.5703379043020789  0.5773525935277135
  0.9996047849859906  0.1698044059683852  0.8823870657242452
  0.5003952150190045  0.8301955940282255  0.3823870657197332
  0.3793404088904850  0.1530373126268998  0.5037765147545201
  0.1206595911069925  0.8469626873706062  0.0037765147625919
  0.8793404088890000  0.8469626873806106  0.0037765147480542
  0.6206595911084918  0.1530373126218976  0.5037765147532909
 
  0.00000000E+00  0.00000000E+00  0.00000000E+00
  0.00000000E+00  0.00000000E+00  0.00000000E+00
  0.00000000E+00  0.00000000E+00  0.00000000E+00
  0.00000000E+00  0.00000000E+00  0.00000000E+00
  0.00000000E+00  0.00000000E+00  0.00000000E+00
  0.00000000E+00  0.00000000E+00  0.00000000E+00
  0.00000000E+00  0.00000000E+00  0.00000000E+00
  0.00000000E+00  0.00000000E+00  0.00000000E+00
  0.00000000E+00  0.00000000E+00  0.00000000E+00
  0.00000000E+00  0.00000000E+00  0.00000000E+00
  0.00000000E+00  0.00000000E+00  0.00000000E+00
  0.00000000E+00  0.00000000E+00  0.00000000E+00
  0.00000000E+00  0.00000000E+00  0.00000000E+00
  0.00000000E+00  0.00000000E+00  0.00000000E+00
  0.00000000E+00  0.00000000E+00  0.00000000E+00
  0.00000000E+00  0.00000000E+00  0.00000000E+00
