Good luck
1.0
7.516133028999928  -5.58288319338e-05  4.0423947543e-06
5.2993368002e-05  6.3840042598179885  -2.232871259e-07
3.2330630947e-06  -2.109850439e-07  6.007916184227827
P  S  Li  
2  8  6  
Car
4.03323e-05  4.2999132125  1.9809987531
3.7580829242  2.0840628883  4.9849589439
1.6330342555  5.454024672  2.0178947607
2.1250890407  0.9299514262  5.0218532758
5.3910648324  0.9299271669  5.0218550323
5.8831914928  5.4539931024  2.0178970466
4.03323e-05  3.0936229184  3.5762628236
3.7580814081  3.2903532813  0.5723067458
4.03324e-05  3.1979805869  0.3119426673
3.7580811277  3.1859956311  3.315902781
0.0008168827  0.8896006569  5.3465321934
3.7573067629  5.4943754184  2.3425759606
2.8482987452  0.9688834613  3.0266604555
0.9098224036  5.415092777  0.0227011653
6.6064005509  5.4150504636  0.0227042291
4.667853627  0.9688699459  3.0266614341
