Good luck
1.0
6.9336127435  0.0  0.0
0.0  6.9336127435  0.0
0.0  0.0  6.9336127435
P  S  Li  
2  8  6  
Car
0.0  6.8504093906  4.8535289204
3.4668063718  0.0832033529  1.3867225487
1.6329939232  0.8509694416  5.5322451842
1.8338124485  6.0826433019  2.0654388124
5.099800295  6.0826433019  2.0654388124
5.3006188203  0.8509694416  5.5322451842
0.0  4.9563868509  5.4959324923
3.4668063718  1.9772258926  2.0291261206
6.9336127435  6.8760863412  2.8536928211
3.4668063718  0.0575264023  6.3204991929
0.0  3.1755946365  1.5739300928
3.4668063718  3.758018107  5.0407364645
0.0  0.3120125735  0.4784192793
3.4668063718  6.62160017  3.9452256511
0.0  4.2849726755  3.3281341169
3.4668063718  2.648640068  6.7949404886
