Good luck
1.0
6.9336127435  0.0  0.0
0.0  6.9336127435  0.0
0.0  0.0  6.9336127435
P  S  Li  
2  8  6  
Car
0.0  5.2071431704  1.2688511321
3.4668063718  1.7264695731  4.7356575038
1.6329939232  5.5830770689  0.1770598147
1.8338124485  1.3505356746  3.6438661865
5.099800295  1.3505356746  3.6438661865
5.3006188203  5.5830770689  0.1770598147
0.0  6.3752353601  2.8922932672
3.4668063718  0.5583773834  6.359099639
6.9336127435  3.2871831836  1.8289916316
3.4668063718  3.6464295599  5.2957980033
0.0  3.8065533962  6.0599775378
3.4668063718  3.1270593473  2.5931711661
0.0  2.0870174358  5.0338028518
3.4668063718  4.8465953077  1.56699648
0.0  0.3258797989  5.4220851654
3.4668063718  6.6077329446  1.9552787937
