Good luck
1.0
6.9336127435  0.0  0.0
0.0  6.9336127435  0.0
0.0  0.0  6.9336127435
P  S  Li  
2  8  6  
Car
0.0  1.4005897742  4.569250798
3.4668063718  5.5330229693  1.1024444262
1.6329939232  2.0462904219  5.5265413757
1.8338124485  4.8873223216  2.0597350039
5.099800295  4.8873223216  2.0597350039
5.3006188203  2.0462904219  5.5265413757
0.0  6.3346885518  4.5251188335
3.4668063718  0.5989241917  1.0583124618
6.9336127435  2.1087024446  2.698801607
3.4668063718  4.8249102989  6.1656079787
0.0  4.3127071265  6.8088077141
3.4668063718  2.620905617  3.3420013424
0.0  4.5623171852  2.2048888524
3.4668063718  2.3712955583  5.6716952242
0.0  0.5061537303  1.3173864213
3.4668063718  6.4274590132  4.784192793
