Good luck
1.0
6.93361274  0.0  0.0
0.0  6.93361274  0.0
0.0  0.0  6.93361274
P  S  Li  
1  4  3  
Car
 0.41601676  5.69249606  6.4759943
 3.88011999  5.69249606  6.4759943
-0.73868431  5.69249606  6.4759943
-0.73868431  5.69249606  6.4759943
-0.73868431  5.69249606  6.4759943
