Good luck
1.0
6.9336127435  0.0  0.0
0.0  6.9336127435  0.0
0.0  0.0  6.9336127435
P  S  Li  
2  8  6  
Car
0.0  3.7788189452  1.3728553232
3.4668063718  3.1547937983  4.839661695
1.6329939232  4.5054958784  0.4754840447
1.8338124485  2.4281168651  3.9422904165
5.099800295  2.4281168651  3.9422904165
5.3006188203  4.5054958784  0.4754840447
0.0  4.3212166446  3.2979029761
3.4668063718  2.6123960989  6.7647093478
6.9336127435  1.7830673795  1.2425502274
3.4668063718  5.150545364  4.7093565991
0.0  6.6562682338  0.9291041076
3.4668063718  0.2773445097  4.3959104794
0.0  1.9552787937  5.5122221311
3.4668063718  4.9783339498  2.0454157593
0.0  4.6801886019  5.3735498762
3.4668063718  2.2534241416  1.9067435045
