Good luck
1.0
6.9336127435  0.0  0.0
0.0  6.9336127435  0.0
0.0  0.0  6.9336127435
P  S  Li  
2  8  6  
Car
6.3373220476  1.892876279  4.4375121558
6.3373220476  5.0407364645  0.9707057841
0.6472848084  2.1323157253  5.9854748609
0.6472848084  4.8012970182  2.5186684891
6.470131534  3.4773853193  3.2243779797
6.470131534  3.4562274242  6.6911843514
4.4612748362  1.7231759923  5.1095610344
4.4612748362  5.2104367512  1.6427546627
6.8369842681  0.238628079  3.4306347484
6.8369842681  6.6949846645  6.8974411201
2.4961005877  4.2087029353  2.0038140829
2.4961005877  2.7249098082  5.4706204546
4.1740348716  2.9329181905  3.7233500433
4.1740348716  4.000694553  0.2565436715
1.3035191958  2.8150467739  3.9105575873
1.3035191958  4.1185659696  0.4437512156
