Good luck                               
   1.00000000000000     
     7.7852244063298048    0.0000000000000000    0.0000000000000000
     0.0000000000000000    6.1411829707242420    0.0000000000000000
     0.0000000000000000    0.0000000000000000    5.9294214263724152
   P    S    Li
     2     8     6
Direct
  0.0000000000000000  0.7712531420540643  0.5282812523441081
  0.5000000000045048  0.2287468579419851  0.0282812523417775
  0.2084541746388879  0.6051544955452997  0.6474349146993603
  0.2915458253656240  0.3948455044507568  0.1474349146970368
  0.7084541746433928  0.3948455044507568  0.1474349146970368
  0.7915458253572822  0.6051544955452997  0.6474349146993603
  0.0000000000000000  0.8061938822050934  0.1877754322112963
  0.5000000000045048  0.1938061177909560  0.6877754322136198
  0.0000000000000000  0.0682533066345954  0.6784179765682481
  0.5000000000045048  0.9317466933614540  0.1784179765659246
  0.0000000000000000  0.4337226925817959  0.9402331839332234
  0.5000000000045048  0.5662773074142535  0.4402331839308928
  0.2668771500164766  0.7675700005473232  0.0016342467676367
  0.2331228499880353  0.2324299994487333  0.5016342467699602
  0.7668771500209814  0.2324299994487333  0.5016342467699602
  0.7331228499796936  0.7675700005473232  0.0016342467676367
 
  0.00000000E+00  0.00000000E+00  0.00000000E+00
  0.00000000E+00  0.00000000E+00  0.00000000E+00
  0.00000000E+00  0.00000000E+00  0.00000000E+00
  0.00000000E+00  0.00000000E+00  0.00000000E+00
  0.00000000E+00  0.00000000E+00  0.00000000E+00
  0.00000000E+00  0.00000000E+00  0.00000000E+00
  0.00000000E+00  0.00000000E+00  0.00000000E+00
  0.00000000E+00  0.00000000E+00  0.00000000E+00
  0.00000000E+00  0.00000000E+00  0.00000000E+00
  0.00000000E+00  0.00000000E+00  0.00000000E+00
  0.00000000E+00  0.00000000E+00  0.00000000E+00
  0.00000000E+00  0.00000000E+00  0.00000000E+00
  0.00000000E+00  0.00000000E+00  0.00000000E+00
  0.00000000E+00  0.00000000E+00  0.00000000E+00
  0.00000000E+00  0.00000000E+00  0.00000000E+00
  0.00000000E+00  0.00000000E+00  0.00000000E+00
