Good luck
1.0
7.785224406329805  0.0  0.0
0.0  6.141182970724242  0.0
0.0  0.0  5.929421426372415
P  S  Li  
2  8  6  
Car
0.0  4.7364066621  3.1324021768
3.8926122032  1.4047763087  0.1676914636
1.622862528  3.7163644827  3.8389144554
2.2697496752  2.424818488  0.8742037423
5.5154747311  2.424818488  0.8742037423
6.1623618784  3.7163644827  3.8389144554
0.0  4.9509841405  1.1133996711
3.8926122032  1.1901988302  4.0781103843
0.0  0.4191560443  4.0226260863
3.8926122032  5.7220269264  1.0579153731
0.0  2.6635704137  5.5750387866
3.8926122032  3.477612557  2.6103280734
2.0776985018  4.7137878162  0.0096901378
1.8149137013  1.4273951545  2.974400851
5.970310705  1.4273951545  2.974400851
5.7075259045  4.7137878162  0.0096901378
