Good luck                               
   1.00000000000000     
     7.7426009768052655    0.0000000000000000    0.0000000000000000
     0.0000000000000000    6.1399110804850876    0.0000000000000000
     0.0000000000000000    0.0000000000000000    5.9363935203282612
   P    S    Li
     2     8     6
Direct
 -0.0000000000000000  0.7711880039009997  0.4407823414458659
  0.5000000000018261  0.2288119960936643  0.9407823414395209
  0.2094628935812832  0.6035931085398013  0.5586066355144463
  0.2905371064205428  0.3964068914548625  0.0586066355207846
  0.7094628935831163  0.3964068914548625  0.0586066355207846
  0.7905371064223762  0.6035931085398013  0.5586066355144463
 -0.0000000000000000  0.8129005060769867  0.1014352772746885
  0.5000000000018261  0.1870994939176773  0.6014352772683434
 -0.0000000000000000  0.0659591224774241  0.5960373918617879
  0.5000000000018261  0.9340408775172397  0.0960373918512722
 -0.0000000000000000  0.4367722932903287  0.8500634246915253
  0.5000000000018261  0.5632277067043354  0.3500634246978635
  0.2674057072875446  0.7710753373768523  0.9114166402410867
  0.2325942927142814  0.2289246626178116  0.4114166402474320
  0.7674057072893780  0.2289246626178116  0.4114166402474320
  0.7325942927161145  0.7710753373768523  0.9114166402410867
 
  0.00000000E+00  0.00000000E+00  0.00000000E+00
  0.00000000E+00  0.00000000E+00  0.00000000E+00
  0.00000000E+00  0.00000000E+00  0.00000000E+00
  0.00000000E+00  0.00000000E+00  0.00000000E+00
  0.00000000E+00  0.00000000E+00  0.00000000E+00
  0.00000000E+00  0.00000000E+00  0.00000000E+00
  0.00000000E+00  0.00000000E+00  0.00000000E+00
  0.00000000E+00  0.00000000E+00  0.00000000E+00
  0.00000000E+00  0.00000000E+00  0.00000000E+00
  0.00000000E+00  0.00000000E+00  0.00000000E+00
  0.00000000E+00  0.00000000E+00  0.00000000E+00
  0.00000000E+00  0.00000000E+00  0.00000000E+00
  0.00000000E+00  0.00000000E+00  0.00000000E+00
  0.00000000E+00  0.00000000E+00  0.00000000E+00
  0.00000000E+00  0.00000000E+00  0.00000000E+00
  0.00000000E+00  0.00000000E+00  0.00000000E+00
