Good luck
1.0
7.801052184771457  0.0  0.0
0.0  6.1380963772327535  0.0
0.0  0.0  5.931067570275225
P  S  Li  
2  8  6  
Car
0.0  4.7347569084  2.6092930851
3.9005260924  1.4033394688  5.5748268702
1.6221525896  3.6803496672  3.2629814758
2.2783735028  2.45774671  0.2974476907
5.522678682  2.45774671  0.2974476907
6.1788995952  3.6803496672  3.2629814758
0.0  5.0546807117  0.6027669446
3.9005260924  1.0834156655  3.5683007297
0.0  0.3764609034  3.5883348427
3.9005260924  5.7616354738  0.6228010575
0.0  2.6539588373  5.0646108578
3.9005260924  3.4841375399  2.0990770727
2.0798731333  4.7124620647  5.4197485329
1.8206529591  1.4256343125  2.4542147478
5.9803992257  1.4256343125  2.4542147478
5.7211790515  4.7124620647  5.4197485329
