Good luck                               
   1.00000000000000     
     7.4812203349794464    0.0000000000000000    0.0000000000000000
     0.0000000000000000    6.4083859974333084    0.0000000000000000
     0.0000000000000000    0.0000000000000000    6.0118368588287465
   P    S    Li
     2     8     6
Direct
  0.0000000000000000  0.3151321128243680  0.2819404510968546
  0.4999999999975202  0.6848678871856079  0.7819404510990999
  0.2229534169892269  0.1648700987951525  0.1721630527165947
  0.2770465830082933  0.8351299011992269  0.6721630527188330
  0.7229534169867469  0.8351299011992269  0.6721630527188330
  0.7770465830058138  0.1648700987951525  0.1721630527165947
  0.0000000000000000  0.6123390392005653  0.1641030767845661
  0.4999999999975202  0.3876609607938144  0.6641030767701777
  0.0000000000000000  0.3103313876410668  0.6207043686711564
  0.4999999999975202  0.6896686123689164  0.1207043686689182
  0.0000000000000000  0.6512287196351884  0.7673176709843569
  0.4999999999975202  0.3487712803591911  0.2673176709821117
  0.2590032963202126  0.1871204933144523  0.7839833510692804
  0.2409967036773076  0.8128795066955307  0.2839833510670422
  0.7590032963177329  0.8128795066955307  0.2839833510670422
  0.7409967036748277  0.1871204933144523  0.7839833510692804
 
  0.00000000E+00  0.00000000E+00  0.00000000E+00
  0.00000000E+00  0.00000000E+00  0.00000000E+00
  0.00000000E+00  0.00000000E+00  0.00000000E+00
  0.00000000E+00  0.00000000E+00  0.00000000E+00
  0.00000000E+00  0.00000000E+00  0.00000000E+00
  0.00000000E+00  0.00000000E+00  0.00000000E+00
  0.00000000E+00  0.00000000E+00  0.00000000E+00
  0.00000000E+00  0.00000000E+00  0.00000000E+00
  0.00000000E+00  0.00000000E+00  0.00000000E+00
  0.00000000E+00  0.00000000E+00  0.00000000E+00
  0.00000000E+00  0.00000000E+00  0.00000000E+00
  0.00000000E+00  0.00000000E+00  0.00000000E+00
  0.00000000E+00  0.00000000E+00  0.00000000E+00
  0.00000000E+00  0.00000000E+00  0.00000000E+00
  0.00000000E+00  0.00000000E+00  0.00000000E+00
  0.00000000E+00  0.00000000E+00  0.00000000E+00
