Good luck                               
   1.00000000000000     
     7.6594360861762887    0.0000000000000000    0.0000000000000000
     0.0000000000000000    5.8422032493497476    0.0000000000000000
     0.0000000000000000    0.0000000000000000    6.1543095237725955
   P    S    Li
     2     8     6
Direct
  0.0000000000000000  0.2050718814753506  0.0266605102971189
  0.5000000000072120 -0.2050718814753506  0.5266605103043310
  0.2187538811740588  0.3452894118640075  0.8924560045952247
  0.2812461188187293  0.6547105881359925  0.3924560046024370
  0.7187538811812708  0.6547105881359925  0.3924560046024371
  0.7812461188259412  0.3452894118640075  0.8924560045952247
  0.0000000000000000  0.2013714590890895  0.3508721987370695
  0.5000000000072120  0.7986285409109102  0.8508721987442812
  0.0000000000000000  0.8571899138617066 -0.0639155296839353
  0.5000000000072120  0.1428100861382940  0.4360844703232764
  0.0000000000000000  0.5358832121183025  0.5769815639214784
  0.5000000000072120  0.4641167878816973  0.0769815639286828
  0.2685668395299071  0.0403125480308067  0.2182446237492964
  0.2314331604773050  0.9596874519691930  0.7182446237565079
  0.7685668395226957  0.9596874519691929  0.7182446237565079
  0.7314331604700923  0.0403125480308067  0.2182446237492964
 
  0.00000000E+00  0.00000000E+00  0.00000000E+00
  0.00000000E+00  0.00000000E+00  0.00000000E+00
  0.00000000E+00  0.00000000E+00  0.00000000E+00
  0.00000000E+00  0.00000000E+00  0.00000000E+00
  0.00000000E+00  0.00000000E+00  0.00000000E+00
  0.00000000E+00  0.00000000E+00  0.00000000E+00
  0.00000000E+00  0.00000000E+00  0.00000000E+00
  0.00000000E+00  0.00000000E+00  0.00000000E+00
  0.00000000E+00  0.00000000E+00  0.00000000E+00
  0.00000000E+00  0.00000000E+00  0.00000000E+00
  0.00000000E+00  0.00000000E+00  0.00000000E+00
  0.00000000E+00  0.00000000E+00  0.00000000E+00
  0.00000000E+00  0.00000000E+00  0.00000000E+00
  0.00000000E+00  0.00000000E+00  0.00000000E+00
  0.00000000E+00  0.00000000E+00  0.00000000E+00
  0.00000000E+00  0.00000000E+00  0.00000000E+00
