Good luck
1.0
7.480461249837096  0.0  0.0
0.0  6.410526802636034  0.0
0.0  0.0  6.012210922973046
P  S  Li  
2  8  6  
Car
0.0  2.0112202903  1.6951174609
3.7402306249  4.3993065124  4.7012229224
1.6685303954  1.0479575554  1.0365594214
2.0717002295  5.3625692472  4.0426648829
5.4087610203  5.3625692472  4.0426648829
5.8119308544  1.0479575554  1.0365594214
0.0  3.9144305473  0.985302196
3.7402306249  2.4960962553  3.9914076574
0.0  1.9825005493  3.7324106694
3.7402306249  4.4280262534  0.7263052079
0.0  4.1795312799  4.6153004041
3.7402306249  2.2309955227  1.6091949426
1.9268729421  1.1913440291  4.7113235855
1.8133576828  5.2191827736  1.705218124
5.667103567  5.2191827736  1.705218124
5.5535883077  1.1913440291  4.7113235855
