Good luck
1.0
7.516133028999928  -5.58288319338e-05  4.0423947543e-06
3.2993368002e-05  6.3840042598179885  -2.232871259e-07
3.2330630947e-06  -2.109850439e-07  6.007916184227827
P  S  Li  
2  8  6  
Car
4.03323e-05  4.3492223925  2.4378050531
3.7580834159  2.0347536762  5.4417652474
1.6330342555  5.2795271466  1.753796544
2.1250887565  1.1044489702  4.7577550468
5.3910677294  1.1044247109  4.7577568033
5.8831883116  5.279495577  1.7537988299
4.03323e-05  4.3862517483  4.4374631627
3.758082335  1.997724391  1.4335071753
4.03324e-05  2.4515835277  1.8061639621
3.758082736  3.9323925854  4.8101240236
7.5161406717  2.2243807581  5.3659484158
3.7581160238  4.1595394871  2.3619882348
1.8236298352  1.1733332613  2.4391510855
1.9344939144  5.2106428073  5.443109096
5.5817314798  5.2106157161  5.4431110576
5.6925252988  1.1733045237  2.4391531663
