Good luck                               
   1.00000000000000     
     7.6278229418884420    0.0000000000000000    0.0000000000000000
     0.0000000000000000    6.1882802457353527    0.0000000000000000
     0.0000000000000000    0.0000000000000000    5.9709554726959784
   P    S    Li
     2     8     6
Direct
  0.0000000000000000  0.7713087775523890  0.4134101558338277
  0.4999999999990266  0.2286912224379052  0.9134101558421626
  0.2117767838056125  0.6028663830198684  0.2964588585611768
  0.2882232161934142  0.3971336169859725  0.7964588585695119
  0.7117767838046388  0.3971336169859725  0.7964588585695119
  0.7882232161924408  0.6028663830198684  0.2964588585611768
  0.0000000000000000  0.0630773260270172  0.2569639879713403
  0.4999999999990266  0.9369226739632769  0.7569639879629843
  0.0000000000000000 -0.1852840309472125  0.7503318468470819
  0.4999999999990266  0.1852840309530531  0.2503318468554380
  0.0000000000000000  0.4298433011859100  0.0091123388068642
  0.4999999999990266  0.5701566988199308  0.5091123387985009
  0.7318743846862054  0.7696955541129523  0.9450956554912312
  0.7681256153108814  0.2303044458773414  0.4450956554995871
  0.2318743846871790  0.2303044458773414  0.4450956554995871
  0.2681256153118476  0.7696955541129524  0.9450956554912312
 
  0.00000000E+00  0.00000000E+00  0.00000000E+00
  0.00000000E+00  0.00000000E+00  0.00000000E+00
  0.00000000E+00  0.00000000E+00  0.00000000E+00
  0.00000000E+00  0.00000000E+00  0.00000000E+00
  0.00000000E+00  0.00000000E+00  0.00000000E+00
  0.00000000E+00  0.00000000E+00  0.00000000E+00
  0.00000000E+00  0.00000000E+00  0.00000000E+00
  0.00000000E+00  0.00000000E+00  0.00000000E+00
  0.00000000E+00  0.00000000E+00  0.00000000E+00
  0.00000000E+00  0.00000000E+00  0.00000000E+00
  0.00000000E+00  0.00000000E+00  0.00000000E+00
  0.00000000E+00  0.00000000E+00  0.00000000E+00
  0.00000000E+00  0.00000000E+00  0.00000000E+00
  0.00000000E+00  0.00000000E+00  0.00000000E+00
  0.00000000E+00  0.00000000E+00  0.00000000E+00
  0.00000000E+00  0.00000000E+00  0.00000000E+00
