Good luck
1.0
7.4487728766144965  0.0  0.0
0.0  6.43206248046244  0.0
0.0  0.0  5.989672265700137
P  S  Li  
2  8  6  
Car
0.0  5.9304041973  2.5508777158
3.7243864383  0.5016582831  5.5457138487
1.664602419  4.797056495  2.2486454715
2.0597840193  1.6350059855  5.2434816044
5.3889888573  1.6350059855  5.2434816044
5.7841704576  4.797056495  2.2486454715
0.0  1.0171617013  1.1996464582
3.7243864383  5.4149007791  4.194482591
0.0  0.2075687994  4.4531838037
3.7243864383  6.2244936811  1.4583476709
0.0  3.0082913277  0.4378863736
3.7243864383  3.4237711528  3.4327225064
5.7921649335  4.5696292743  5.1491335885
5.3809943814  1.8624332061  2.1542974557
2.0677784952  1.8624332061  2.1542974557
1.6566079431  4.5696292743  5.1491335885
