Good luck                               
   1.00000000000000     
     7.6671662250539709    0.0000000000000000    0.0000000000000000
     0.0000000000000000    6.2222038029208289    0.0000000000000000
     0.0000000000000000    0.0000000000000000    6.0320769346648708
   P    S    Li
     2     8     6
Direct
  0.0000000000000000  0.3310231460649291  0.2981333513445819
  0.4999999999964828  0.6689768539317242  0.7981333513392030
  0.2181884429260847  0.1663677635428868  0.2081729186814130
  0.2818115570703981  0.8336322364537665  0.7081729186760342
  0.7181884429225676  0.8336322364537665  0.7081729186760342
  0.7818115570799193  0.1663677635428868  0.2081729186814130
  0.0000000000000000  0.6270046536837341  0.1637920307717167
  0.4999999999964828  0.3729953463289846  0.6637920307663379
  0.0000000000000000  0.3349764352015612  0.6375549536179221
  0.4999999999964828  0.6650235647950922  0.1375549536233009
  0.0000000000000000  0.6589314826806856  0.7717081483740458
  0.4999999999964828  0.3410685173159678  0.2717081483794175
  0.2524067981826477  0.1801197966022769  0.8021376463874361
  0.2475932018138352  0.8198802033943764  0.3021376463928078
  0.7524067981921689  0.8198802033943764  0.3021376463928078
  0.7475932018103180  0.1801197966022769  0.8021376463874361
 
  0.00000000E+00  0.00000000E+00  0.00000000E+00
  0.00000000E+00  0.00000000E+00  0.00000000E+00
  0.00000000E+00  0.00000000E+00  0.00000000E+00
  0.00000000E+00  0.00000000E+00  0.00000000E+00
  0.00000000E+00  0.00000000E+00  0.00000000E+00
  0.00000000E+00  0.00000000E+00  0.00000000E+00
  0.00000000E+00  0.00000000E+00  0.00000000E+00
  0.00000000E+00  0.00000000E+00  0.00000000E+00
  0.00000000E+00  0.00000000E+00  0.00000000E+00
  0.00000000E+00  0.00000000E+00  0.00000000E+00
  0.00000000E+00  0.00000000E+00  0.00000000E+00
  0.00000000E+00  0.00000000E+00  0.00000000E+00
  0.00000000E+00  0.00000000E+00  0.00000000E+00
  0.00000000E+00  0.00000000E+00  0.00000000E+00
  0.00000000E+00  0.00000000E+00  0.00000000E+00
  0.00000000E+00  0.00000000E+00  0.00000000E+00
