Good luck
1.0
7.667166225053971  0.0  0.0
0.0  6.222203802920829  0.0
0.0  0.0  6.032076934664871
P  S  Li  
2  8  6  
Car
0.0  2.0596254206  1.7984956043
3.8335831125  4.1625783823  4.8145340716
1.6728870603  1.0546683337  1.2204227105
2.1606960522  5.1675354692  4.2364611779
5.5064701728  5.1675354692  4.2364611779
5.9942791648  1.0546683337  1.2204227105
0.0  3.9284418528  1.0529049824
3.8335831125  2.2937619501  4.0689434498
0.0  2.0127547763  3.8455240551
3.8335831125  4.2094490266  0.8294855878
0.0  4.0998054685  4.6549812559
3.8335831125  2.1223983344  1.6389427886
1.9346296277  1.1208047091  4.838753053
1.8989534848  5.1013990938  1.8227145857
5.7682127403  5.1013990938  1.8227145857
5.7325365973  1.1208047091  4.838753053
