Good luck
1.0
7.667166225053971  0.0  0.0
0.0  6.222203802920829  0.0
0.0  0.0  6.032076934664871
P  S  Li  
2  8  6  
Car
0.0  2.0596934783  1.7983633121
3.8335831125  4.1625103246  4.8144017794
1.6728870603  1.035174131  1.2557150612
2.1606960522  5.1870296719  4.2717535285
5.5064701728  5.1870296719  4.2717535285
5.9942791648  1.035174131  1.2557150612
0.0  3.9013507406  0.9880061309
3.8335831125  2.3208530624  4.0040445982
0.0  2.084291649  3.8457805303
3.8335831125  4.1379121539  0.829742063
0.0  4.1000059774  4.6550029221
3.8335831125  2.1221978255  1.6389644548
1.935244878  1.1207420834  4.8385559952
1.8983382345  5.1014617195  1.8225175279
5.7688279906  5.1014617195  1.8225175279
5.731921347  1.1207420834  4.8385559952
