Good luck
1.0
7.516133028999928  -5.58288319338e-05  4.0423947543e-06
5.2993368002e-05  6.3840042598179885  -2.232871259e-07
3.2330630947e-06  -2.109850439e-07  6.007916184227827
P  S  Li  
2  8  6  
Car
7.5160609084  0.5132032898  0.5246659003
3.7581938096  5.8707170844  3.528621784
1.6691502092  1.6153327667  0.1452843433
2.0889710715  4.768643463  3.1492425509
5.4272445158  4.7686186668  3.1492443463
5.847009794  1.6153017341  0.1452865902
7.5160660953  0.0036986266  2.4946345515
3.758190743  6.3802216093  5.4985903995
7.5160988926  5.2527246087  5.3427219064
3.758157778  1.1311956381  2.3387619373
7.5160812122  2.6311255199  0.9864698916
3.7581740029  3.7527948219  3.9904259234
6.260817764  3.7381862919  5.6503814084
5.0134392376  2.6457339333  2.6464226836
2.5027405645  2.6457525825  2.6464213333
1.2553834081  3.7382234716  5.6503787163
