Good luck
1.0
7.481220334979446  0.0  0.0
0.0  6.408385997433308  0.0
0.0  0.0  6.0118368588287465
P  S  Li  
2  8  6  
Car
0.0  2.003896056  1.684157159
3.7406101675  4.4044899414  4.6900755884
1.6679636369  1.3082844471  0.7466475006
2.0726465306  5.1001015504  3.75256593
5.4085738044  5.1001015504  3.75256593
5.8132566981  1.3082844471  0.7466475006
0.0  4.0353852194  1.6344163146
3.7406101675  2.3730007781  4.640334744
0.0  1.3117573146  3.5997779842
3.7406101675  5.0966286828  0.5938595547
0.0  4.1409636573  4.6332839488
3.7406101675  2.2674223401  1.6273655193
1.9369645314  1.1896270207  4.7179149167
1.8036456361  5.2187589767  1.7119964872
5.6775746989  5.2187589767  1.7119964872
5.5442558036  1.1896270207  4.7179149167
799625
