Good luck                               
   1.00000000000000     
     7.2730873289736859    0.0000000000000000    0.0000000000000000
     0.0000000000000000    5.6224615763546835    0.0000000000000000
     0.0000000000000000    0.0000000000000000    7.0001243436298566
   P    S    Li
     2     8     6
Direct
  0.0000000000000000  0.7513101046920379  0.3834078016216030
  0.4999999999989839  0.2486898953020076  0.8834078016244452
  0.2279846221600279  0.5401998965668916  0.4218084400417171
  0.2720153778389631  0.4598001034271539  0.9218084400309742
  0.7279846221590119  0.4598001034271539  0.9218084400309742
  0.7720153778379469  0.5401998965668916  0.4218084400417171
  0.0000000000000000 -0.0796339944023147  0.1316164494300278
  0.4999999999989839  0.0796339943963605  0.6316164494328697
  0.0000000000000000 -0.0421231116104140  0.6256962053286830
  0.4999999999989839  0.0421231116222872  0.1256962053258411
  0.0000000000000000  0.3778820406294225  0.6736820077192701
  0.4999999999989839  0.6221179593646236  0.1736820077300062
  0.2827539397734605  0.7809545149189517  0.7022576288204010
  0.2172460602255308  0.2190454850750937  0.2022576288175588
  0.7827539397724446  0.2190454850750937  0.2022576288175588
  0.7172460602245143  0.7809545149189515  0.7022576288204010
 
  0.00000000E+00  0.00000000E+00  0.00000000E+00
  0.00000000E+00  0.00000000E+00  0.00000000E+00
  0.00000000E+00  0.00000000E+00  0.00000000E+00
  0.00000000E+00  0.00000000E+00  0.00000000E+00
  0.00000000E+00  0.00000000E+00  0.00000000E+00
  0.00000000E+00  0.00000000E+00  0.00000000E+00
  0.00000000E+00  0.00000000E+00  0.00000000E+00
  0.00000000E+00  0.00000000E+00  0.00000000E+00
  0.00000000E+00  0.00000000E+00  0.00000000E+00
  0.00000000E+00  0.00000000E+00  0.00000000E+00
  0.00000000E+00  0.00000000E+00  0.00000000E+00
  0.00000000E+00  0.00000000E+00  0.00000000E+00
  0.00000000E+00  0.00000000E+00  0.00000000E+00
  0.00000000E+00  0.00000000E+00  0.00000000E+00
  0.00000000E+00  0.00000000E+00  0.00000000E+00
  0.00000000E+00  0.00000000E+00  0.00000000E+00
