Good luck
1.0
7.869267425015949  0.0  0.0
0.0  5.611373975533393  0.0
0.0  0.0  7.362169230158119
P  S  Li  
2  8  6  
Car
0.0  4.862971154  3.0220553537
3.9346337125  0.7484028215  6.7031399688
1.6899280375  3.7270026552  3.1034627381
2.244705675  1.8843713203  6.7845473531
5.62456175  1.8843713203  6.7845473531
6.1793393875  3.7270026552  3.1034627381
0.0  0.4109545873  1.3629792703
3.9346337125  5.2004193882  5.0440638854
0.0  0.3734604302  4.7449049258
3.9346337125  5.2379135454  1.0638203107
0.0  3.0331315951  4.5565626282
3.9346337125  2.5782423804  0.8754780132
2.8884041163  3.3500915079  5.0078197939
1.0462295962  2.2612824676  1.3267351788
6.8230378288  2.2612824676  1.3267351788
4.9808633087  3.3500915079  5.0078197939
