Good luck
1.0
6.9336127435  0.0  0.0
0.0  6.9336127435  0.0
0.0  0.0  6.9336127435
P  S  Li  
2  8  6  
Car
0.0  5.3596826507  3.0785240581
3.4668063718  1.5739300928  6.5453304299
1.6329939232  4.5015725206  2.3058782265
1.8338124485  2.4320402229  5.7726845982
5.099800295  2.4320402229  5.7726845982
5.3006188203  4.5015725206  2.3058782265
0.0  0.3768662514  2.6376189057
3.4668063718  6.5567464921  6.1044252774
6.9336127435  5.1251065669  5.0647208739
3.4668063718  1.8085061766  1.5979145021
0.0  3.6262794649  1.3312536468
3.4668063718  3.3073332786  4.7980600185
5.3388818125  3.5846777884  0.3744150881
5.0615373028  3.3489349551  3.8412214599
1.8720754407  3.3489349551  3.8412214599
1.594730931  3.5846777884  0.3744150881
