Good luck
1.0
6.9336127435  0.0  0.0
0.0  6.9336127435  0.0
0.0  0.0  6.9336127435
P  S  Li  
2  8  6  
Car
1.6571334457  3.8620222981  5.1586078812
1.6571334457  3.0715904454  1.6918015094
1.5353753909  5.1713036954  6.6655786602
1.5353753909  1.7623090481  3.1987722885
0.0124864137  2.7243557745  5.1293717573
0.0124864137  4.209256969  1.6625653855
3.2661307113  2.7014801085  5.4121297845
3.2661307113  4.232132635  1.9453234127
1.814541267  4.8509496142  3.4273513227
1.814541267  2.0826631293  6.8941576944
3.3766694061  5.7340977389  3.2657316022
3.3766694061  1.1995150046  6.7325379739
6.8226749396  4.6732549891  3.9452256511
6.8226749396  2.2603577544  0.4784192793
1.0469755243  6.4482598515  0.9291041076
1.0469755243  0.485352892  4.3959104794
