Good luck
1.0
6.9336127435  0.0  0.0
0.0  6.9336127435  0.0
0.0  0.0  6.9336127435
P  S  Li  
2  8  6  
Car
0.0  6.0183758614  0.5616226322
3.4668063718  0.9152368821  4.028429004
1.6329939232  6.0989237367  6.3433470928
1.8338124485  0.8346890068  2.876540721
5.099800295  0.8346890068  2.876540721
5.3006188203  6.0989237367  6.3433470928
0.0  0.6332312746  1.8274228129
3.4668063718  6.3003814689  5.2942291847
6.9336127435  4.3088119539  1.5995990175
3.4668063718  2.6248007896  5.0664053892
0.0  3.3003996659  3.5361424992
3.4668063718  3.6332130776  0.0693361274
4.569250798  1.1648469409  0.6032243087
5.8311683173  5.7687658026  4.0700306804
1.1024444262  5.7687658026  4.0700306804
2.3643619455  1.1648469409  0.6032243087
