Good luck
1.0
6.9336127435  0.0  0.0
0.0  6.9336127435  0.0
0.0  0.0  6.9336127435
P  S  Li  
2  8  6  
Car
0.0  0.3674814754  4.6871222146
3.4668063718  6.5661312681  1.2203158429
1.6329939232  0.5082041375  5.8332163246
1.8338124485  6.425408606  2.3664099529
5.099800295  6.425408606  2.3664099529
5.3006188203  0.5082041375  5.8332163246
0.0  5.5395497227  3.7400400018
3.4668063718  1.3940630208  0.27323363
6.9336127435  1.8475806475  3.3420162074
3.4668063718  5.086032096  6.8088225791
0.0  4.9922011753  0.6794940489
3.4668063718  1.9414115682  4.1463004206
2.4752997494  2.7249098082  1.0469755243
0.9915066223  4.2087029353  4.513781896
5.9421061212  4.2087029353  4.513781896
4.4583129941  2.7249098082  1.0469755243
