Good luck                               
   1.00000000000000     
     7.7724324509549323    0.0000000000000000    0.0000000000000000
     0.0000000000000000    6.1322217933740850    0.0000000000000000
     0.0000000000000000    0.0000000000000000    5.9362838727480414
   P    S    Li
     2     8     6
Direct
  0.0000000000000000  0.7718376729674568  0.4403838297025346
  0.4999999999969589  0.2281623270256151  0.9403838296995216
  0.2087410791023774  0.6051383155800673  0.5590154713782006
  0.2912589208945815  0.3948616844293403  0.0590154713812063
  0.7087410790993430  0.3948616844293403  0.0590154713812063
  0.7912589208915478  0.6051383155800673  0.5590154713782006
  0.0000000000000000  0.8092815863308833  0.1000788156612224
  0.4999999999969589  0.1907184136785244  0.6000788156582169
  0.0000000000000000  0.0685250268545693  0.5918531357564488
  0.4999999999969589  0.9314749731548315  0.0918531357594616
  0.0000000000000000  0.4327009423521527  0.8518054627838663
  0.4999999999969589  0.5672990576409197  0.3518054627868790
  0.2669629105344807  0.7686534909509962  0.9124950591533979
  0.2330370894624782  0.2313465090420689  0.4124950591564105
  0.7669629105314467  0.2313465090420689  0.4124950591564105
  0.7330370894594441  0.7686534909509962  0.9124950591533979
 
  0.00000000E+00  0.00000000E+00  0.00000000E+00
  0.00000000E+00  0.00000000E+00  0.00000000E+00
  0.00000000E+00  0.00000000E+00  0.00000000E+00
  0.00000000E+00  0.00000000E+00  0.00000000E+00
  0.00000000E+00  0.00000000E+00  0.00000000E+00
  0.00000000E+00  0.00000000E+00  0.00000000E+00
  0.00000000E+00  0.00000000E+00  0.00000000E+00
  0.00000000E+00  0.00000000E+00  0.00000000E+00
  0.00000000E+00  0.00000000E+00  0.00000000E+00
  0.00000000E+00  0.00000000E+00  0.00000000E+00
  0.00000000E+00  0.00000000E+00  0.00000000E+00
  0.00000000E+00  0.00000000E+00  0.00000000E+00
  0.00000000E+00  0.00000000E+00  0.00000000E+00
  0.00000000E+00  0.00000000E+00  0.00000000E+00
  0.00000000E+00  0.00000000E+00  0.00000000E+00
  0.00000000E+00  0.00000000E+00  0.00000000E+00
