Good luck
1.0
7.8168956798475016  0.0  0.0
0.0  6.122255424242429  0.0
0.0  0.0  5.936551370235763
P  S  Li  
2  8  6  
Car
0.0  4.7270149156  2.6098308065
3.9084478399  1.3952405086  5.5781064916
1.6247686153  3.6912071221  3.2857792461
2.2836792246  2.4310483022  0.317503561
5.5332164552  2.4310483022  0.317503561
6.1921270645  3.6912071221  3.2857792461
0.0  4.9863280638  0.5969211944
3.9084478399  1.1359273605  3.5651968795
0.0  0.4089856167  3.5376147303
3.9084478399  5.7132698076  0.5693390452
0.0  2.6132483915  5.0749883663
3.9084478399  3.5090070327  2.1067126812
2.0781153136  4.6856881571  5.4296599061
1.8303325263  1.4365672671  2.461384221
5.9865631535  1.4365672671  2.461384221
5.7387803662  4.6856881571  5.4296599061
