Good luck                               
   1.00000000000000     
     7.7452916418982163    0.0000000000000000    0.0000000000000000
     0.0000000000000000    6.1393757676808249    0.0000000000000000
     0.0000000000000000    0.0000000000000000    5.9335588765542688
   P    S    Li
     2     8     6
Direct
  0.0000000000000000  0.7717965295025693  0.4167695921550951
  0.5000000000002274  0.2282034704956330  0.9167695921534181
  0.2091995378250933  0.6039228054706341  0.2988654282760504
  0.2908004621751411  0.3960771945275752  0.7988654282743737
  0.7091995378253207  0.3960771945275752  0.7988654282743737
  0.7908004621753685  0.6039228054706341  0.2988654282760504
  0.0000000000000000  0.0661115895091484  0.2609375427657507
  0.5000000000002274  0.9338884104890608  0.7609375427640738
  0.0000000000000000  0.8139761583232619  0.7562992716280216
  0.5000000000002274  0.1860238416749405  0.2562992716297056
  0.0000000000000000  0.4358628264979508  0.0057972504865839
  0.5000000000002274  0.5641371735002587  0.5057972504849071
  0.2678634859581019  0.7702321455349773  0.9454574832873559
  0.2321365140421254  0.2297678544632319  0.4454574832890330
  0.7678634859583363  0.2297678544632319  0.4454574832890330
  0.7321365140423529  0.7702321455349773  0.9454574832873559
 
  0.00000000E+00  0.00000000E+00  0.00000000E+00
  0.00000000E+00  0.00000000E+00  0.00000000E+00
  0.00000000E+00  0.00000000E+00  0.00000000E+00
  0.00000000E+00  0.00000000E+00  0.00000000E+00
  0.00000000E+00  0.00000000E+00  0.00000000E+00
  0.00000000E+00  0.00000000E+00  0.00000000E+00
  0.00000000E+00  0.00000000E+00  0.00000000E+00
  0.00000000E+00  0.00000000E+00  0.00000000E+00
  0.00000000E+00  0.00000000E+00  0.00000000E+00
  0.00000000E+00  0.00000000E+00  0.00000000E+00
  0.00000000E+00  0.00000000E+00  0.00000000E+00
  0.00000000E+00  0.00000000E+00  0.00000000E+00
  0.00000000E+00  0.00000000E+00  0.00000000E+00
  0.00000000E+00  0.00000000E+00  0.00000000E+00
  0.00000000E+00  0.00000000E+00  0.00000000E+00
  0.00000000E+00  0.00000000E+00  0.00000000E+00
