Good luck
1.0
7.790874657796419  0.0  0.0
0.0  6.132408169410994  0.0
0.0  0.0  5.93083241661991
P  S  Li  
2  8  6  
Car
0.0  4.7304246064  2.4717206733
3.8954373289  1.401983563  5.4371368816
1.6229686531  3.6880315908  1.8019966566
2.2724686758  2.4443765786  4.7674128649
5.518405982  2.4443765786  4.7674128649
6.1679060047  3.6880315908  1.8019966566
0.0  0.3907097068  1.5233273248
3.8954373289  5.7416984626  4.4887435331
0.0  5.0141102471  4.4844070238
3.8954373289  1.1182979223  1.5189908155
0.0  2.6630942358  0.0239744607
3.8954373289  3.4693139336  2.989390669
2.0770089654  4.7099356003  5.5957763641
1.8184283635  1.4224725691  2.6303601558
5.9724462943  1.4224725691  2.6303601558
5.7138656924  4.7099356003  5.5957763641
