Good luck                               
   1.00000000000000     
     7.7776624926098217    0.0000000000000000    0.0000000000000000
     0.0000000000000000    6.1326358795306524    0.0000000000000000
     0.0000000000000000    0.0000000000000000    5.9256646740550147
   P    S    Li
     2     8     6
Direct
  0.0000000000000000  0.2701593147260959  0.3347409137568007
  0.4999999999988844  0.7298406852848325  0.8347409137565095
  0.2085588242786997  0.1035788527008500  0.2157875083340788
  0.2914411757201776  0.8964211472937713  0.7157875083337877
  0.7085588242775837  0.8964211472937713  0.7157875083337877
  0.7914411757190626  0.1035788527008500  0.2157875083340788
  0.0000000000000000  0.5673054480403908  0.1837539638597213
  0.4999999999988844  0.4326945519542301  0.6837539638594303
  0.0000000000000000  0.3078911427229493  0.6754719730537208
  0.4999999999988844  0.6921088572716713  0.1754719730540047
  0.0000000000000000  0.9342945983794885  0.9199934650082732
  0.4999999999988844  0.0657054016314396  0.4199934650085649
  0.2672240667647886  0.2697168322607832  0.8632389321107011
  0.2327759332340885  0.7302831677501378  0.3632389321109847
  0.7672240667636734  0.7302831677501378  0.3632389321109847
  0.7327759332329729  0.2697168322607832  0.8632389321107011
 
  0.00000000E+00  0.00000000E+00  0.00000000E+00
  0.00000000E+00  0.00000000E+00  0.00000000E+00
  0.00000000E+00  0.00000000E+00  0.00000000E+00
  0.00000000E+00  0.00000000E+00  0.00000000E+00
  0.00000000E+00  0.00000000E+00  0.00000000E+00
  0.00000000E+00  0.00000000E+00  0.00000000E+00
  0.00000000E+00  0.00000000E+00  0.00000000E+00
  0.00000000E+00  0.00000000E+00  0.00000000E+00
  0.00000000E+00  0.00000000E+00  0.00000000E+00
  0.00000000E+00  0.00000000E+00  0.00000000E+00
  0.00000000E+00  0.00000000E+00  0.00000000E+00
  0.00000000E+00  0.00000000E+00  0.00000000E+00
  0.00000000E+00  0.00000000E+00  0.00000000E+00
  0.00000000E+00  0.00000000E+00  0.00000000E+00
  0.00000000E+00  0.00000000E+00  0.00000000E+00
  0.00000000E+00  0.00000000E+00  0.00000000E+00
