Good luck
1.0
7.771431396017371  0.0  0.0
0.0  6.132656431533004  0.0
0.0  0.0  5.936611962803409
P  S  Li  
2  8  6  
Car
0.0  1.671135955  1.9864259647
3.885715698  4.4615204766  4.9547319461
1.6234657679  0.5088874202  1.5510303676
2.2622499301  5.6237690113  4.519336349
5.5091814659  5.6237690113  4.519336349
6.1479656281  0.5088874202  1.5510303676
0.0  3.2251789349  0.6816353512
3.885715698  2.9074774966  3.6499413326
0.0  2.3695173865  3.8958767611
3.885715698  3.763139045  0.9275707797
0.0  5.725978107  5.4611440604
3.885715698  0.4066783246  2.492838079
2.0688550669  1.6353316366  5.1170708877
1.8168606311  4.497324795  2.1487649063
5.9545707649  4.497324795  2.1487649063
5.7025763291  1.6353316366  5.1170708877
